*SPEF "ieee 1481-1999"
*DESIGN "asqrt_top"
*DATE "03:45:31 Sunday August 03, 2025"
*VENDOR "The OpenROAD Project"
*PROGRAM "OpenROAD"
*VERSION "v2.0-19576-gec1bf1a13"
*DESIGN_FLOW "NAME_SCOPE LOCAL" "PIN_CAP NONE"
*DIVIDER /
*DELIMITER :
*BUS_DELIMITER []
*T_UNIT 1 NS
*C_UNIT 1 PF
*R_UNIT 1 OHM
*L_UNIT 1 HENRY

*NAME_MAP
*1 _0000_
*2 _0001_
*3 _0002_
*4 _0003_
*5 _0004_
*6 _0005_
*7 _0006_
*8 _0007_
*9 _0008_
*10 _0009_
*11 _0010_
*12 _0011_
*13 _0012_
*14 _0013_
*15 _0014_
*16 _0015_
*17 _0016_
*18 _0017_
*19 _0018_
*20 _0019_
*21 _0020_
*22 _0021_
*23 _0022_
*24 _0023_
*25 _0024_
*26 _0025_
*27 _0026_
*28 _0027_
*29 _0028_
*30 _0029_
*31 _0030_
*32 _0031_
*33 _0032_
*34 _0033_
*35 _0034_
*36 _0035_
*37 _0036_
*38 _0037_
*39 _0038_
*40 _0039_
*41 _0040_
*42 _0041_
*43 _0042_
*44 _0043_
*45 _0044_
*46 _0045_
*47 _0046_
*48 _0047_
*49 _0048_
*50 _0049_
*51 _0050_
*52 _0051_
*53 _0052_
*54 _0053_
*55 _0054_
*56 _0055_
*57 _0056_
*58 _0057_
*59 _0058_
*60 _0059_
*61 _0060_
*62 _0061_
*63 _0062_
*64 _0063_
*65 _0064_
*66 _0065_
*67 _0066_
*68 _0067_
*69 _0068_
*70 _0069_
*71 _0070_
*72 _0071_
*73 _0072_
*74 _0073_
*75 _0074_
*76 _0075_
*77 _0076_
*78 _0077_
*79 _0078_
*80 _0079_
*81 _0080_
*82 _0081_
*83 _0082_
*84 _0083_
*85 _0084_
*86 _0085_
*87 _0086_
*88 _0087_
*89 _0088_
*90 _0089_
*91 _0090_
*92 _0091_
*93 _0092_
*94 _0093_
*95 _0094_
*96 _0095_
*97 _0096_
*98 _0097_
*99 _0098_
*100 _0099_
*101 _0100_
*107 _0106_
*108 _0107_
*109 _0108_
*110 _0109_
*111 _0110_
*112 _0111_
*113 _0112_
*115 _0114_
*116 _0115_
*117 _0116_
*118 _0117_
*119 _0118_
*122 _0121_
*123 _0122_
*124 _0123_
*125 _0124_
*127 _0126_
*128 _0127_
*129 _0128_
*131 _0130_
*132 _0131_
*133 _0132_
*134 _0133_
*135 _0134_
*136 _0135_
*137 _0136_
*138 _0137_
*139 _0138_
*145 _0144_
*146 _0145_
*147 _0146_
*148 _0147_
*149 _0148_
*150 _0149_
*152 _0151_
*154 _0153_
*155 _0154_
*156 _0155_
*157 _0156_
*158 _0157_
*160 _0159_
*161 _0160_
*162 _0161_
*163 _0162_
*165 _0164_
*166 _0165_
*167 _0166_
*168 _0167_
*170 _0169_
*171 _0170_
*173 _0172_
*174 _0173_
*175 _0174_
*176 _0175_
*177 _0176_
*178 _0177_
*179 _0178_
*183 clknet_4_15_0_clk
*184 _0183_
*185 _0184_
*186 clknet_4_14_0_clk
*187 _0186_
*188 _0187_
*189 _0188_
*190 _0189_
*191 _0190_
*192 clknet_4_13_0_clk
*193 _0192_
*194 _0193_
*195 _0194_
*196 _0195_
*197 _0196_
*198 clknet_4_12_0_clk
*199 _0198_
*200 _0199_
*201 _0200_
*202 _0201_
*203 _0202_
*205 _0204_
*208 _0207_
*209 _0208_
*214 _0213_
*215 _0214_
*218 _0217_
*219 _0218_
*222 _0221_
*223 _0222_
*226 _0225_
*227 _0226_
*228 _0227_
*230 _0229_
*231 _0230_
*232 _0231_
*237 _0236_
*238 _0237_
*240 _0239_
*242 _0241_
*244 _0243_
*245 _0244_
*246 _0245_
*247 _0246_
*248 _0247_
*249 _0248_
*250 _0249_
*251 _0250_
*252 _0251_
*253 _0252_
*254 _0253_
*255 _0254_
*256 _0255_
*257 _0256_
*258 _0257_
*260 _0259_
*261 _0260_
*262 _0261_
*263 _0262_
*264 _0263_
*265 _0264_
*266 _0265_
*267 _0266_
*268 _0267_
*269 _0268_
*270 _0269_
*271 _0270_
*272 _0271_
*273 _0272_
*274 _0273_
*275 _0274_
*276 _0275_
*277 _0276_
*278 _0277_
*279 _0278_
*280 _0279_
*281 _0280_
*282 _0281_
*283 _0282_
*284 _0283_
*285 _0284_
*286 _0285_
*287 _0286_
*288 _0287_
*289 _0288_
*290 _0289_
*291 _0290_
*292 _0291_
*293 _0292_
*294 _0293_
*295 _0294_
*296 _0295_
*297 _0296_
*298 _0297_
*299 _0298_
*302 _0301_
*305 _0304_
*308 _0307_
*309 _0308_
*310 _0309_
*311 _0310_
*312 _0311_
*314 _0313_
*315 _0314_
*316 _0315_
*317 _0316_
*318 _0317_
*319 _0318_
*320 _0319_
*321 _0320_
*322 _0321_
*323 _0322_
*324 _0323_
*325 _0324_
*326 _0325_
*327 _0326_
*328 _0327_
*329 _0328_
*330 _0329_
*331 _0330_
*332 _0331_
*333 _0332_
*334 _0333_
*336 _0335_
*337 _0336_
*338 _0337_
*339 _0338_
*340 _0339_
*341 _0340_
*342 _0341_
*343 _0342_
*344 _0343_
*345 _0344_
*346 _0345_
*347 _0346_
*348 _0347_
*349 _0348_
*350 _0349_
*351 _0350_
*352 _0351_
*353 _0352_
*354 _0353_
*355 _0354_
*356 _0355_
*357 _0356_
*358 _0357_
*359 _0358_
*360 _0359_
*361 _0360_
*362 _0361_
*363 _0362_
*364 _0363_
*365 _0364_
*366 _0365_
*367 _0366_
*368 _0367_
*369 _0368_
*370 _0369_
*371 _0370_
*372 _0371_
*373 _0372_
*374 _0373_
*375 _0374_
*376 _0375_
*377 _0376_
*378 _0377_
*379 _0378_
*380 _0379_
*382 _0381_
*383 _0382_
*385 _0384_
*386 _0385_
*387 _0386_
*390 _0389_
*393 _0392_
*395 _0394_
*396 _0395_
*397 _0396_
*398 _0397_
*399 _0398_
*400 _0399_
*401 _0400_
*402 _0401_
*403 _0402_
*404 _0403_
*405 _0404_
*406 _0405_
*407 _0406_
*408 _0407_
*410 _0409_
*411 _0410_
*412 _0411_
*413 _0412_
*414 _0413_
*417 _0416_
*418 _0417_
*419 _0418_
*420 _0419_
*421 _0420_
*422 _0421_
*423 _0422_
*424 _0423_
*425 _0424_
*426 _0425_
*428 _0427_
*429 _0428_
*430 _0429_
*431 _0430_
*432 _0431_
*433 _0432_
*434 _0433_
*435 _0434_
*436 _0435_
*437 _0436_
*438 _0437_
*439 _0438_
*440 _0439_
*441 _0440_
*442 _0441_
*443 _0442_
*444 _0443_
*445 _0444_
*446 _0445_
*447 _0446_
*448 _0447_
*449 _0448_
*450 _0449_
*451 _0450_
*452 _0451_
*453 _0452_
*454 _0453_
*455 _0454_
*456 _0455_
*457 _0456_
*458 _0457_
*459 _0458_
*460 _0459_
*461 _0460_
*462 _0461_
*463 _0462_
*464 _0463_
*466 _0465_
*467 _0466_
*469 _0468_
*470 _0469_
*473 _0472_
*476 _0475_
*477 _0476_
*478 _0477_
*479 _0478_
*480 _0479_
*481 _0480_
*482 _0481_
*483 _0482_
*484 _0483_
*485 _0484_
*486 _0485_
*487 _0486_
*488 _0487_
*489 _0488_
*490 _0489_
*491 _0490_
*492 _0491_
*493 _0492_
*494 _0493_
*495 _0494_
*496 _0495_
*497 _0496_
*498 _0497_
*499 _0498_
*500 _0499_
*501 _0500_
*502 _0501_
*503 _0502_
*504 _0503_
*505 _0504_
*506 _0505_
*507 _0506_
*508 _0507_
*509 _0508_
*510 _0509_
*511 _0510_
*512 _0511_
*513 _0512_
*514 _0513_
*515 _0514_
*516 _0515_
*517 _0516_
*518 _0517_
*519 _0518_
*520 _0519_
*521 _0520_
*522 _0521_
*523 _0522_
*524 _0523_
*525 _0524_
*526 _0525_
*527 _0526_
*528 _0527_
*529 _0528_
*530 _0529_
*531 _0530_
*532 _0531_
*533 _0532_
*534 _0533_
*536 _0535_
*537 _0536_
*538 _0537_
*539 _0538_
*541 _0540_
*542 _0541_
*543 _0542_
*544 _0543_
*545 _0544_
*546 _0545_
*547 _0546_
*548 _0547_
*555 _0554_
*556 _0555_
*557 _0556_
*558 _0557_
*559 _0558_
*560 _0559_
*561 _0560_
*562 _0561_
*563 _0562_
*565 _0564_
*566 _0565_
*567 _0566_
*569 _0568_
*570 _0569_
*572 _0571_
*573 _0572_
*574 _0573_
*575 _0574_
*577 _0576_
*578 _0577_
*579 _0578_
*581 _0580_
*582 _0581_
*583 _0582_
*584 _0583_
*585 _0584_
*586 _0585_
*587 _0586_
*588 _0587_
*589 _0588_
*590 _0589_
*591 _0590_
*592 _0591_
*593 _0592_
*594 _0593_
*595 _0594_
*596 _0595_
*597 _0596_
*598 _0597_
*599 _0598_
*600 _0599_
*601 _0600_
*602 _0601_
*603 _0602_
*604 _0603_
*605 _0604_
*606 _0605_
*607 _0606_
*608 _0607_
*609 _0608_
*610 _0609_
*611 _0610_
*612 _0611_
*613 _0612_
*614 _0613_
*615 _0614_
*616 _0615_
*617 _0616_
*618 _0617_
*619 _0618_
*620 _0619_
*621 _0620_
*622 _0621_
*623 _0622_
*624 _0623_
*625 _0624_
*626 _0625_
*627 _0626_
*628 _0627_
*629 _0628_
*630 _0629_
*631 _0630_
*632 _0631_
*633 _0632_
*634 _0633_
*635 _0634_
*636 _0635_
*637 _0636_
*638 _0637_
*639 _0638_
*640 _0639_
*641 _0640_
*642 _0641_
*643 _0642_
*644 _0643_
*645 _0644_
*647 net113
*648 clk
*649 genblk1\[0\]\.pipe\.counter\[0\]
*650 genblk1\[0\]\.pipe\.counter\[1\]
*651 genblk1\[0\]\.pipe\.counter\[2\]
*652 genblk1\[0\]\.pipe\.counter\[3\]
*653 genblk1\[0\]\.pipe\.counter\[4\]
*654 genblk1\[0\]\.pipe\.eps\[0\]\[24\]
*655 genblk1\[0\]\.pipe\.eps\[0\]\[25\]
*656 genblk1\[0\]\.pipe\.eps\[0\]\[26\]
*657 genblk1\[0\]\.pipe\.eps\[0\]\[27\]
*658 genblk1\[0\]\.pipe\.eps\[0\]\[28\]
*659 genblk1\[0\]\.pipe\.eps\[0\]\[29\]
*660 genblk1\[0\]\.pipe\.eps\[0\]\[30\]
*661 genblk1\[0\]\.pipe\.eps\[0\]\[31\]
*662 genblk1\[0\]\.pipe\.state\[0\]
*663 genblk1\[0\]\.pipe\.state\[1\]
*664 genblk1\[0\]\.pipe\.valid
*665 genblk1\[1\]\.pipe\.counter\[0\]
*666 genblk1\[1\]\.pipe\.counter\[1\]
*667 genblk1\[1\]\.pipe\.counter\[2\]
*668 genblk1\[1\]\.pipe\.counter\[3\]
*669 genblk1\[1\]\.pipe\.counter\[4\]
*670 genblk1\[1\]\.pipe\.eps\[0\]\[24\]
*671 genblk1\[1\]\.pipe\.eps\[0\]\[25\]
*672 genblk1\[1\]\.pipe\.eps\[0\]\[26\]
*673 genblk1\[1\]\.pipe\.eps\[0\]\[27\]
*674 genblk1\[1\]\.pipe\.eps\[0\]\[28\]
*675 genblk1\[1\]\.pipe\.eps\[0\]\[29\]
*676 genblk1\[1\]\.pipe\.eps\[0\]\[30\]
*677 genblk1\[1\]\.pipe\.eps\[0\]\[31\]
*678 genblk1\[1\]\.pipe\.state\[0\]
*679 genblk1\[1\]\.pipe\.state\[1\]
*680 genblk1\[1\]\.pipe\.valid
*681 genblk1\[2\]\.pipe\.counter\[0\]
*682 genblk1\[2\]\.pipe\.counter\[1\]
*683 genblk1\[2\]\.pipe\.counter\[2\]
*684 genblk1\[2\]\.pipe\.counter\[3\]
*685 genblk1\[2\]\.pipe\.counter\[4\]
*686 genblk1\[2\]\.pipe\.eps\[0\]\[24\]
*687 genblk1\[2\]\.pipe\.eps\[0\]\[25\]
*688 genblk1\[2\]\.pipe\.eps\[0\]\[26\]
*689 genblk1\[2\]\.pipe\.eps\[0\]\[27\]
*690 genblk1\[2\]\.pipe\.eps\[0\]\[28\]
*691 genblk1\[2\]\.pipe\.eps\[0\]\[29\]
*692 genblk1\[2\]\.pipe\.eps\[0\]\[30\]
*693 genblk1\[2\]\.pipe\.eps\[0\]\[31\]
*694 genblk1\[2\]\.pipe\.state\[0\]
*695 genblk1\[2\]\.pipe\.state\[1\]
*696 genblk1\[2\]\.pipe\.valid
*697 genblk1\[3\]\.pipe\.counter\[0\]
*698 genblk1\[3\]\.pipe\.counter\[1\]
*699 genblk1\[3\]\.pipe\.counter\[2\]
*700 genblk1\[3\]\.pipe\.counter\[3\]
*701 genblk1\[3\]\.pipe\.counter\[4\]
*702 genblk1\[3\]\.pipe\.eps\[0\]\[24\]
*703 genblk1\[3\]\.pipe\.eps\[0\]\[25\]
*704 genblk1\[3\]\.pipe\.eps\[0\]\[26\]
*705 genblk1\[3\]\.pipe\.eps\[0\]\[27\]
*706 genblk1\[3\]\.pipe\.eps\[0\]\[28\]
*707 genblk1\[3\]\.pipe\.eps\[0\]\[29\]
*708 genblk1\[3\]\.pipe\.eps\[0\]\[30\]
*709 genblk1\[3\]\.pipe\.eps\[0\]\[31\]
*710 genblk1\[3\]\.pipe\.state\[0\]
*711 genblk1\[3\]\.pipe\.state\[1\]
*712 genblk1\[3\]\.pipe\.valid
*713 queries[0]
*714 queries[100]
*715 queries[101]
*716 queries[102]
*717 queries[103]
*718 queries[104]
*719 queries[105]
*720 queries[106]
*721 queries[107]
*722 queries[108]
*723 queries[109]
*724 queries[10]
*725 queries[110]
*726 queries[111]
*727 queries[112]
*728 queries[113]
*729 queries[114]
*730 queries[115]
*731 queries[116]
*732 queries[117]
*733 queries[118]
*734 queries[119]
*735 queries[11]
*736 queries[120]
*737 queries[121]
*738 queries[122]
*739 queries[123]
*740 queries[124]
*741 queries[125]
*742 queries[126]
*743 queries[127]
*744 queries[12]
*745 queries[13]
*746 queries[14]
*747 queries[15]
*748 queries[16]
*749 queries[17]
*750 queries[18]
*751 queries[19]
*752 queries[1]
*753 queries[20]
*754 queries[21]
*755 queries[22]
*756 queries[23]
*757 queries[24]
*758 queries[25]
*759 queries[26]
*760 queries[27]
*761 queries[28]
*762 queries[29]
*763 queries[2]
*764 queries[30]
*765 queries[31]
*766 queries[32]
*767 queries[33]
*768 queries[34]
*769 queries[35]
*770 queries[36]
*771 queries[37]
*772 queries[38]
*773 queries[39]
*774 queries[3]
*775 queries[40]
*776 queries[41]
*777 queries[42]
*778 queries[43]
*779 queries[44]
*780 queries[45]
*781 queries[46]
*782 queries[47]
*783 queries[48]
*784 queries[49]
*785 queries[4]
*786 queries[50]
*787 queries[51]
*788 queries[52]
*789 queries[53]
*790 queries[54]
*791 queries[55]
*792 queries[56]
*793 queries[57]
*794 queries[58]
*795 queries[59]
*796 queries[5]
*797 queries[60]
*798 queries[61]
*799 queries[62]
*800 queries[63]
*801 queries[64]
*802 queries[65]
*803 queries[66]
*804 queries[67]
*805 queries[68]
*806 queries[69]
*807 queries[6]
*808 queries[70]
*809 queries[71]
*810 queries[72]
*811 queries[73]
*812 queries[74]
*813 queries[75]
*814 queries[76]
*815 queries[77]
*816 queries[78]
*817 queries[79]
*818 queries[7]
*819 queries[80]
*820 queries[81]
*821 queries[82]
*822 queries[83]
*823 queries[84]
*824 queries[85]
*825 queries[86]
*826 queries[87]
*827 queries[88]
*828 queries[89]
*829 queries[8]
*830 queries[90]
*831 queries[91]
*832 queries[92]
*833 queries[93]
*834 queries[94]
*835 queries[95]
*836 queries[96]
*837 queries[97]
*838 queries[98]
*839 queries[99]
*840 queries[9]
*841 ready
*842 reset
*843 results[0]
*844 results[100]
*845 results[101]
*846 results[102]
*847 results[103]
*848 results[104]
*849 results[105]
*850 results[106]
*851 results[107]
*852 net35
*853 net36
*854 results[10]
*855 net37
*856 net38
*857 results[112]
*858 results[113]
*859 results[114]
*860 results[115]
*861 results[116]
*862 results[117]
*863 results[118]
*864 results[119]
*865 results[11]
*866 results[120]
*867 results[121]
*868 results[122]
*869 results[123]
*870 results[124]
*871 results[125]
*872 results[126]
*873 results[127]
*874 net39
*875 net40
*876 net41
*877 net42
*878 results[16]
*879 results[17]
*880 results[18]
*881 results[19]
*882 results[1]
*883 results[20]
*884 results[21]
*885 results[22]
*886 results[23]
*887 results[24]
*888 results[25]
*889 results[26]
*890 results[27]
*891 results[28]
*892 results[29]
*893 results[2]
*894 results[30]
*895 results[31]
*896 results[32]
*897 results[33]
*898 results[34]
*899 results[35]
*900 results[36]
*901 results[37]
*902 results[38]
*903 results[39]
*904 results[3]
*905 results[40]
*906 results[41]
*907 results[42]
*908 results[43]
*909 net43
*910 net44
*911 net45
*912 net46
*913 results[48]
*914 results[49]
*915 results[4]
*916 results[50]
*917 results[51]
*918 results[52]
*919 results[53]
*920 results[54]
*921 results[55]
*922 results[56]
*923 results[57]
*924 results[58]
*925 results[59]
*926 results[5]
*927 results[60]
*928 results[61]
*929 results[62]
*930 results[63]
*931 results[64]
*932 results[65]
*933 results[66]
*934 results[67]
*935 results[68]
*936 results[69]
*937 results[6]
*938 results[70]
*939 results[71]
*940 results[72]
*941 results[73]
*942 results[74]
*943 results[75]
*944 net47
*945 net48
*946 net49
*947 net50
*948 results[7]
*949 results[80]
*950 results[81]
*951 results[82]
*952 results[83]
*953 results[84]
*954 results[85]
*955 results[86]
*956 results[87]
*957 results[88]
*958 results[89]
*959 results[8]
*960 results[90]
*961 results[91]
*962 results[92]
*963 results[93]
*964 results[94]
*965 results[95]
*966 results[96]
*967 results[97]
*968 results[98]
*969 results[99]
*970 results[9]
*971 net51
*972 clknet_4_11_0_clk
*973 clknet_4_10_0_clk
*974 clknet_4_9_0_clk
*975 clknet_4_8_0_clk
*976 clknet_4_7_0_clk
*977 clknet_4_6_0_clk
*978 clknet_4_5_0_clk
*979 clknet_4_4_0_clk
*980 clknet_4_3_0_clk
*981 clknet_4_2_0_clk
*982 clknet_4_1_0_clk
*983 clknet_4_0_0_clk
*984 clknet_0_clk
*985 net275
*986 net274
*987 net273
*988 net272
*989 net271
*990 net270
*991 net269
*992 net268
*993 net267
*994 net266
*995 net265
*996 net264
*997 net263
*998 net262
*999 net261
*1000 net260
*1001 net259
*1002 net258
*1003 net257
*1004 net256
*1005 net255
*1006 net254
*1007 net253
*1008 net252
*1009 net251
*1010 net250
*1011 net249
*1012 net248
*1013 net247
*1014 net246
*1015 net245
*1016 net244
*1017 net243
*1018 net242
*1019 net241
*1020 net240
*1021 net239
*1022 net238
*1023 net237
*1024 net236
*1025 net235
*1026 net234
*1027 net233
*1028 net232
*1029 net231
*1030 net230
*1031 net229
*1032 net228
*1033 valid
*1034 results[79]
*1035 results[78]
*1036 results[77]
*1037 results[76]
*1038 results[47]
*1039 results[46]
*1040 results[45]
*1041 results[44]
*1042 results[15]
*1043 results[14]
*1044 results[13]
*1045 results[12]
*1046 results[111]
*1047 results[110]
*1048 results[109]
*1049 results[108]
*1050 net34
*1051 net33
*1052 net32
*1053 net31
*1054 net30
*1055 net29
*1056 net28
*1057 net27
*1058 net26
*1059 net25
*1060 net24
*1061 net23
*1062 net22
*1063 net21
*1064 net20
*1065 net19
*1066 net18
*1067 net17
*1068 net16
*1069 net15
*1070 net14
*1071 net13
*1072 net12
*1073 net11
*1074 net10
*1075 net9
*1076 net8
*1077 net7
*1078 net6
*1079 net5
*1080 net4
*1081 net3
*1082 net2
*1083 net1
*1084 net114
*1085 net115
*1086 net116
*1087 net117
*1088 net118
*1089 net119
*1090 net120
*1091 net121
*1092 net122
*1093 net123
*1094 net124
*1095 net125
*1096 net126
*1097 net127
*1098 net128
*1099 net129
*1100 net130
*1101 net131
*1102 net132
*1103 net133
*1104 net134
*1105 net135
*1106 net136
*1107 net137
*1108 net138
*1109 net139
*1110 net140
*1111 net141
*1112 net142
*1113 net143
*1114 net144
*1115 net145
*1116 net146
*1117 net147
*1118 net148
*1119 net149
*1120 net150
*1121 net151
*1122 net152
*1123 net153
*1124 net154
*1125 net155
*1126 net156
*1127 net157
*1128 net158
*1129 net159
*1130 net160
*1131 net161
*1132 net162
*1133 net163
*1134 net164
*1135 net165
*1136 net166
*1137 net167
*1138 net168
*1139 net169
*1140 net170
*1141 net171
*1142 net172
*1143 net173
*1144 net174
*1145 net175
*1146 net176
*1147 net177
*1148 net178
*1149 net179
*1150 net180
*1151 net181
*1152 net182
*1153 net183
*1154 net184
*1155 net185
*1156 net186
*1157 net187
*1158 net188
*1159 net189
*1160 net190
*1161 net191
*1162 net192
*1163 FILLER_1_320
*1164 _0648_
*1165 FILLER_1_313
*1166 FILLER_1_306
*1167 _0651_
*1168 _0652_
*1169 _0653_
*1170 _0654_
*1171 FILLER_1_299
*1172 FILLER_1_292
*1173 FILLER_1_285
*1174 FILLER_1_278
*1175 _0659_
*1176 _0660_
*1177 _0661_
*1178 FILLER_1_272
*1179 FILLER_1_265
*1180 _0664_
*1181 _0665_
*1182 _0666_
*1183 _0667_
*1184 FILLER_1_258
*1185 FILLER_1_251
*1186 _0670_
*1187 _0671_
*1188 _0672_
*1189 FILLER_1_244
*1190 FILLER_1_237
*1191 _0675_
*1192 _0676_
*1193 _0677_
*1194 _0678_
*1195 _0679_
*1196 FILLER_1_231
*1197 _0681_
*1198 _0682_
*1199 _0683_
*1200 FILLER_1_227
*1201 FILLER_1_222
*1202 FILLER_1_217
*1203 FILLER_1_208
*1204 _0688_
*1205 _0689_
*1206 FILLER_1_206
*1207 _0691_
*1208 FILLER_1_184
*1209 _0693_
*1210 FILLER_1_179
*1211 _0695_
*1212 _0696_
*1213 _0697_
*1214 _0698_
*1215 _0699_
*1216 _0700_
*1217 _0701_
*1218 _0702_
*1219 _0703_
*1220 _0704_
*1221 _0705_
*1222 _0706_
*1223 _0707_
*1224 _0708_
*1225 _0709_
*1226 FILLER_1_177
*1227 _0711_
*1228 _0712_
*1229 _0713_
*1230 _0714_
*1231 _0715_
*1232 _0716_
*1233 _0717_
*1234 _0718_
*1235 _0719_
*1236 _0720_
*1237 _0721_
*1238 _0722_
*1239 _0723_
*1240 _0724_
*1241 _0725_
*1242 _0726_
*1243 _0727_
*1244 _0728_
*1245 _0729_
*1246 _0730_
*1247 _0731_
*1248 _0732_
*1249 _0733_
*1250 _0734_
*1251 _0735_
*1252 _0736_
*1253 _0737_
*1254 _0738_
*1255 _0739_
*1256 _0740_
*1257 _0741_
*1258 _0742_
*1259 _0743_
*1260 _0744_
*1261 _0745_
*1262 _0746_
*1263 _0747_
*1264 _0748_
*1265 _0749_
*1266 _0750_
*1267 _0751_
*1268 _0752_
*1269 _0753_
*1270 _0754_
*1271 FILLER_1_171
*1272 FILLER_1_163
*1273 _0757_
*1274 FILLER_1_157
*1275 FILLER_1_153
*1276 _0760_
*1277 FILLER_1_146
*1278 FILLER_1_139
*1279 _0763_
*1280 _0764_
*1281 _0765_
*1282 _0766_
*1283 _0767_
*1284 FILLER_1_134
*1285 _0769_
*1286 _0770_
*1287 _0771_
*1288 _0772_
*1289 _0773_
*1290 _0774_
*1291 _0775_
*1292 _0776_
*1293 _0777_
*1294 _0778_
*1295 _0779_
*1296 _0780_
*1297 _0781_
*1298 _0782_
*1299 _0783_
*1300 _0784_
*1301 _0785_
*1302 _0786_
*1303 _0787_
*1304 _0788_
*1305 _0789_
*1306 FILLER_1_132
*1307 _0791_
*1308 _0792_
*1309 _0793_
*1310 _0794_
*1311 _0795_
*1312 _0796_
*1313 _0797_
*1314 _0798_
*1315 _0799_
*1316 _0800_
*1317 _0801_
*1318 _0802_
*1319 _0803_
*1320 _0804_
*1321 _0805_
*1322 _0806_
*1323 _0807_
*1324 _0808_
*1325 _0809_
*1326 _0810_
*1327 _0811_
*1328 _0812_
*1329 _0813_
*1330 _0814_
*1331 _0815_
*1332 _0816_
*1333 _0817_
*1334 _0818_
*1335 _0819_
*1336 _0820_
*1337 _0821_
*1338 _0822_
*1339 _0823_
*1340 _0824_
*1341 _0825_
*1342 _0826_
*1343 _0827_
*1344 _0828_
*1345 _0829_
*1346 _0830_
*1347 _0831_
*1348 _0832_
*1349 _0833_
*1350 _0834_
*1351 _0835_
*1352 FILLER_1_125
*1353 _0837_
*1354 _0838_
*1355 FILLER_1_120
*1356 _0840_
*1357 _0841_
*1358 _0842_
*1359 _0843_
*1360 _0844_
*1361 _0845_
*1362 _0846_
*1363 FILLER_1_113
*1364 FILLER_1_104
*1365 _0849_
*1366 FILLER_1_102
*1367 FILLER_1_93
*1368 _0852_
*1369 FILLER_1_86
*1370 _0854_
*1371 _0855_
*1372 _0856_
*1373 _0857_
*1374 _0858_
*1375 _0859_
*1376 _0860_
*1377 _0861_
*1378 _0862_
*1379 _0863_
*1380 _0864_
*1381 _0865_
*1382 _0866_
*1383 _0867_
*1384 FILLER_1_79
*1385 _0869_
*1386 _0870_
*1387 _0871_
*1388 _0872_
*1389 _0873_
*1390 FILLER_1_74
*1391 FILLER_1_70
*1392 _0876_
*1393 _0877_
*1394 _0878_
*1395 _0879_
*1396 _0880_
*1397 _0881_
*1398 _0882_
*1399 _0883_
*1400 _0884_
*1401 _0885_
*1402 FILLER_1_63
*1403 _0887_
*1404 _0888_
*1405 _0889_
*1406 _0890_
*1407 _0891_
*1408 _0892_
*1409 _0893_
*1410 _0894_
*1411 _0895_
*1412 _0896_
*1413 _0897_
*1414 _0898_
*1415 _0899_
*1416 _0900_
*1417 _0901_
*1418 _0902_
*1419 _0903_
*1420 _0904_
*1421 _0905_
*1422 _0906_
*1423 _0907_
*1424 _0908_
*1425 _0909_
*1426 _0910_
*1427 _0911_
*1428 _0912_
*1429 _0913_
*1430 _0914_
*1431 _0915_
*1432 _0916_
*1433 _0917_
*1434 _0918_
*1435 _0919_
*1436 _0920_
*1437 _0921_
*1438 _0922_
*1439 _0923_
*1440 FILLER_1_56
*1441 _0925_
*1442 _0926_
*1443 FILLER_1_49
*1444 _0928_
*1445 _0929_
*1446 _0930_
*1447 _0931_
*1448 _0932_
*1449 _0933_
*1450 FILLER_1_42
*1451 FILLER_1_35
*1452 _0936_
*1453 FILLER_1_28
*1454 FILLER_0_324
*1455 _0939_
*1456 _0940_
*1457 _0941_
*1458 _0942_
*1459 _0943_
*1460 _0944_
*1461 _0945_
*1462 _0946_
*1463 _0947_
*1464 _0948_
*1465 _0949_
*1466 _0950_
*1467 _0951_
*1468 _0952_
*1469 _0953_
*1470 _0954_
*1471 _0955_
*1472 _0956_
*1473 _0957_
*1474 _0958_
*1475 _0959_
*1476 _0960_
*1477 _0961_
*1478 _0962_
*1479 _0963_
*1480 _0964_
*1481 _0965_
*1482 _0966_
*1483 _0967_
*1484 _0968_
*1485 _0969_
*1486 _0970_
*1487 _0971_
*1488 _0972_
*1489 _0973_
*1490 _0974_
*1491 _0975_
*1492 _0976_
*1493 _0977_
*1494 _0978_
*1495 _0979_
*1496 _0980_
*1497 _0981_
*1498 _0982_
*1499 _0983_
*1500 _0984_
*1501 _0985_
*1502 _0986_
*1503 _0987_
*1504 _0988_
*1505 _0989_
*1506 _0990_
*1507 _0991_
*1508 _0992_
*1509 _0993_
*1510 _0994_
*1511 _0995_
*1512 _0996_
*1513 _0997_
*1514 FILLER_0_317
*1515 _0999_
*1516 _1000_
*1517 _1001_
*1518 _1002_
*1519 _1003_
*1520 _1004_
*1521 _1005_
*1522 _1006_
*1523 FILLER_0_310
*1524 _1008_
*1525 _1009_
*1526 _1010_
*1527 _1011_
*1528 _1012_
*1529 _1013_
*1530 _1014_
*1531 _1015_
*1532 _1016_
*1533 _1017_
*1534 _1018_
*1535 _1019_
*1536 _1020_
*1537 FILLER_0_303
*1538 FILLER_0_293
*1539 FILLER_0_284
*1540 FILLER_0_279
*1541 FILLER_0_277
*1542 FILLER_0_271
*1543 _1027_
*1544 _1028_
*1545 _1029_
*1546 _1030_
*1547 _1031_
*1548 _1032_
*1549 _1033_
*1550 _1034_
*1551 _1035_
*1552 _1036_
*1553 _1037_
*1554 _1038_
*1555 _1039_
*1556 FILLER_0_238
*1557 _1041_
*1558 _1042_
*1559 _1043_
*1560 _1044_
*1561 _1045_
*1562 FILLER_0_232
*1563 _1047_
*1564 _1048_
*1565 FILLER_0_222
*1566 _1050_
*1567 _1051_
*1568 _1052_
*1569 _1053_
*1570 _1054_
*1571 _1055_
*1572 _1056_
*1573 FILLER_0_213
*1574 _1058_
*1575 _1059_
*1576 _1060_
*1577 _1061_
*1578 FILLER_0_211
*1579 _1063_
*1580 _1064_
*1581 _1065_
*1582 _1066_
*1583 _1067_
*1584 _1068_
*1585 _1069_
*1586 _1070_
*1587 _1071_
*1588 _1072_
*1589 FILLER_0_190
*1590 FILLER_0_188
*1591 FILLER_0_180
*1592 FILLER_0_175
*1593 FILLER_0_173
*1594 _1078_
*1595 _1079_
*1596 _1080_
*1597 _1081_
*1598 _1082_
*1599 _1083_
*1600 _1084_
*1601 _1085_
*1602 _1086_
*1603 _1087_
*1604 FILLER_0_159
*1605 _1089_
*1606 _1090_
*1607 _1091_
*1608 _1092_
*1609 _1093_
*1610 _1094_
*1611 _1095_
*1612 FILLER_0_155
*1613 _1097_
*1614 FILLER_0_147
*1615 _1099_
*1616 _1100_
*1617 _1101_
*1618 _1102_
*1619 _1103_
*1620 _1104_
*1621 FILLER_0_142
*1622 _1106_
*1623 _1107_
*1624 _1108_
*1625 _1109_
*1626 FILLER_0_140
*1627 _1111_
*1628 _1112_
*1629 _1113_
*1630 _1114_
*1631 _1115_
*1632 _1116_
*1633 _1117_
*1634 _1118_
*1635 _1119_
*1636 _1120_
*1637 _1121_
*1638 _1122_
*1639 _1123_
*1640 _1124_
*1641 FILLER_0_123
*1642 FILLER_0_109
*1643 FILLER_0_105
*1644 FILLER_0_92
*1645 FILLER_0_85
*1646 _1130_
*1647 _1131_
*1648 _1132_
*1649 _1133_
*1650 _1134_
*1651 _1135_
*1652 _1136_
*1653 _1137_
*1654 FILLER_0_78
*1655 _1139_
*1656 _1140_
*1657 FILLER_0_71
*1658 _1142_
*1659 _1143_
*1660 _1144_
*1661 _1145_
*1662 _1146_
*1663 _1147_
*1664 _1148_
*1665 _1149_
*1666 FILLER_0_64
*1667 _1151_
*1668 _1152_
*1669 _1153_
*1670 _1154_
*1671 _1155_
*1672 _1156_
*1673 FILLER_0_59
*1674 _1158_
*1675 _1159_
*1676 _1160_
*1677 _1161_
*1678 _1162_
*1679 FILLER_0_55
*1680 _1164_
*1681 _1165_
*1682 FILLER_0_50
*1683 _1167_
*1684 _1168_
*1685 _1169_
*1686 _1170_
*1687 _1171_
*1688 _1172_
*1689 _1173_
*1690 _1174_
*1691 _1175_
*1692 _1176_
*1693 _1177_
*1694 _1178_
*1695 FILLER_0_46
*1696 FILLER_0_39
*1697 FILLER_0_32
*1698 clkbuf_4_15_0_clk
*1699 _1183_
*1700 _1184_
*1701 clkbuf_4_14_0_clk
*1702 _1186_
*1703 _1187_
*1704 _1188_
*1705 _1189_
*1706 _1190_
*1707 _1191_
*1708 _1192_
*1709 _1193_
*1710 clkbuf_4_13_0_clk
*1711 _1195_
*1712 _1196_
*1713 _1197_
*1714 _1198_
*1715 _1199_
*1716 _1200_
*1717 _1201_
*1718 _1202_
*1719 clkbuf_4_12_0_clk
*1720 _1204_
*1721 _1205_
*1722 _1206_
*1723 _1207_
*1724 _1208_
*1725 _1209_
*1726 _1210_
*1727 _1211_
*1728 _1212_
*1729 FILLER_2_16
*1730 genblk1\[0\]\.pipe\.counter\[0\]\$_SDFFE_PP0P__113
*1731 clkbuf_4_11_0_clk
*1732 clkbuf_4_10_0_clk
*1733 clkbuf_4_9_0_clk
*1734 clkbuf_4_8_0_clk
*1735 clkbuf_4_7_0_clk
*1736 clkbuf_4_6_0_clk
*1737 clkbuf_4_5_0_clk
*1738 clkbuf_4_4_0_clk
*1739 clkbuf_4_3_0_clk
*1740 clkbuf_4_2_0_clk
*1741 clkbuf_4_1_0_clk
*1742 clkbuf_4_0_0_clk
*1743 clkbuf_0_clk
*1744 fanout195
*1745 fanout194
*1746 fanout193
*1747 fanout192
*1748 fanout191
*1749 fanout190
*1750 fanout189
*1751 fanout188
*1752 fanout187
*1753 fanout186
*1754 fanout185
*1755 fanout184
*1756 fanout183
*1757 fanout182
*1758 fanout181
*1759 fanout180
*1760 fanout179
*1761 fanout178
*1762 fanout177
*1763 fanout176
*1764 fanout175
*1765 fanout174
*1766 fanout173
*1767 fanout172
*1768 fanout171
*1769 fanout170
*1770 fanout169
*1771 fanout168
*1772 fanout167
*1773 fanout166
*1774 fanout165
*1775 fanout164
*1776 fanout163
*1777 fanout162
*1778 fanout161
*1779 fanout160
*1780 fanout159
*1781 fanout158
*1782 fanout157
*1783 fanout156
*1784 fanout155
*1785 fanout154
*1786 fanout153
*1787 fanout152
*1788 fanout151
*1789 fanout150
*1790 fanout149
*1791 fanout148
*1792 output51
*1793 output50
*1794 output49
*1795 output48
*1796 output47
*1797 output46
*1798 output45
*1799 output44
*1800 output43
*1801 output42
*1802 output41
*1803 output40
*1804 output39
*1805 output38
*1806 output37
*1807 output36
*1808 output35
*1809 input34
*1810 input33
*1811 input32
*1812 input31
*1813 input30
*1814 input29
*1815 input28
*1816 input27
*1817 input26
*1818 input25
*1819 input24
*1820 input23
*1821 input22
*1822 input21
*1823 input20
*1824 input19
*1825 input18
*1826 input17
*1827 input16
*1828 input15
*1829 input14
*1830 input13
*1831 input12
*1832 input11
*1833 input10
*1834 input9
*1835 input8
*1836 input7
*1837 input6
*1838 input5
*1839 input4
*1840 input3
*1841 input2
*1842 input1
*1843 genblk1\[0\]\.pipe\.counter\[0\]\$_SDFFE_PP0P_
*1844 genblk1\[0\]\.pipe\.counter\[1\]\$_SDFFE_PP0P_
*1845 genblk1\[0\]\.pipe\.counter\[2\]\$_SDFFE_PP0P_
*1846 genblk1\[0\]\.pipe\.counter\[3\]\$_SDFFE_PP0P_
*1847 genblk1\[0\]\.pipe\.counter\[4\]\$_SDFFE_PP0P_
*1848 genblk1\[0\]\.pipe\.result\[12\]\$_DFFE_PP_
*1849 genblk1\[0\]\.pipe\.result\[13\]\$_DFFE_PP_
*1850 genblk1\[0\]\.pipe\.result\[14\]\$_DFFE_PP_
*1851 genblk1\[0\]\.pipe\.result\[15\]\$_DFFE_PP_
*1852 genblk1\[0\]\.pipe\.state\[0\]\$_DFF_P_
*1853 genblk1\[0\]\.pipe\.state\[1\]\$_DFF_P_
*1854 genblk1\[0\]\.pipe\.this_query\[24\]\$_SDFFE_PP0P_
*1855 genblk1\[0\]\.pipe\.this_query\[25\]\$_SDFFE_PP0P_
*1856 genblk1\[0\]\.pipe\.this_query\[26\]\$_SDFFE_PP0P_
*1857 genblk1\[0\]\.pipe\.this_query\[27\]\$_SDFFE_PP0P_
*1858 genblk1\[0\]\.pipe\.this_query\[28\]\$_SDFFE_PP0P_
*1859 genblk1\[0\]\.pipe\.this_query\[29\]\$_SDFFE_PP0P_
*1860 genblk1\[0\]\.pipe\.this_query\[30\]\$_SDFFE_PP0P_
*1861 genblk1\[0\]\.pipe\.this_query\[31\]\$_SDFFE_PP0P_
*1862 genblk1\[0\]\.pipe\.valid\$_SDFFE_PP0P_
*1863 genblk1\[1\]\.pipe\.counter\[0\]\$_SDFFE_PP0P_
*1864 genblk1\[1\]\.pipe\.counter\[1\]\$_SDFFE_PP0P_
*1865 genblk1\[1\]\.pipe\.counter\[2\]\$_SDFFE_PP0P_
*1866 genblk1\[1\]\.pipe\.counter\[3\]\$_SDFFE_PP0P_
*1867 genblk1\[1\]\.pipe\.counter\[4\]\$_SDFFE_PP0P_
*1868 genblk1\[1\]\.pipe\.result\[12\]\$_DFFE_PP_
*1869 genblk1\[1\]\.pipe\.result\[13\]\$_DFFE_PP_
*1870 genblk1\[1\]\.pipe\.result\[14\]\$_DFFE_PP_
*1871 genblk1\[1\]\.pipe\.result\[15\]\$_DFFE_PP_
*1872 genblk1\[1\]\.pipe\.state\[0\]\$_DFF_P_
*1873 genblk1\[1\]\.pipe\.state\[1\]\$_DFF_P_
*1874 genblk1\[1\]\.pipe\.this_query\[24\]\$_SDFFE_PP0P_
*1875 genblk1\[1\]\.pipe\.this_query\[25\]\$_SDFFE_PP0P_
*1876 genblk1\[1\]\.pipe\.this_query\[26\]\$_SDFFE_PP0P_
*1877 genblk1\[1\]\.pipe\.this_query\[27\]\$_SDFFE_PP0P_
*1878 genblk1\[1\]\.pipe\.this_query\[28\]\$_SDFFE_PP0P_
*1879 genblk1\[1\]\.pipe\.this_query\[29\]\$_SDFFE_PP0P_
*1880 genblk1\[1\]\.pipe\.this_query\[30\]\$_SDFFE_PP0P_
*1881 genblk1\[1\]\.pipe\.this_query\[31\]\$_SDFFE_PP0P_
*1882 genblk1\[1\]\.pipe\.valid\$_SDFFE_PP0P_
*1883 genblk1\[2\]\.pipe\.counter\[0\]\$_SDFFE_PP0P_
*1884 genblk1\[2\]\.pipe\.counter\[1\]\$_SDFFE_PP0P_
*1885 genblk1\[2\]\.pipe\.counter\[2\]\$_SDFFE_PP0P_
*1886 genblk1\[2\]\.pipe\.counter\[3\]\$_SDFFE_PP0P_
*1887 genblk1\[2\]\.pipe\.counter\[4\]\$_SDFFE_PP0P_
*1888 genblk1\[2\]\.pipe\.result\[12\]\$_DFFE_PP_
*1889 genblk1\[2\]\.pipe\.result\[13\]\$_DFFE_PP_
*1890 genblk1\[2\]\.pipe\.result\[14\]\$_DFFE_PP_
*1891 genblk1\[2\]\.pipe\.result\[15\]\$_DFFE_PP_
*1892 genblk1\[2\]\.pipe\.state\[0\]\$_DFF_P_
*1893 genblk1\[2\]\.pipe\.state\[1\]\$_DFF_P_
*1894 genblk1\[2\]\.pipe\.this_query\[24\]\$_SDFFE_PP0P_
*1895 genblk1\[2\]\.pipe\.this_query\[25\]\$_SDFFE_PP0P_
*1896 genblk1\[2\]\.pipe\.this_query\[26\]\$_SDFFE_PP0P_
*1897 genblk1\[2\]\.pipe\.this_query\[27\]\$_SDFFE_PP0P_
*1898 genblk1\[2\]\.pipe\.this_query\[28\]\$_SDFFE_PP0P_
*1899 genblk1\[2\]\.pipe\.this_query\[29\]\$_SDFFE_PP0P_
*1900 genblk1\[2\]\.pipe\.this_query\[30\]\$_SDFFE_PP0P_
*1901 genblk1\[2\]\.pipe\.this_query\[31\]\$_SDFFE_PP0P_
*1902 genblk1\[2\]\.pipe\.valid\$_SDFFE_PP0P_
*1903 genblk1\[3\]\.pipe\.counter\[0\]\$_SDFFE_PP0P_
*1904 genblk1\[3\]\.pipe\.counter\[1\]\$_SDFFE_PP0P_
*1905 genblk1\[3\]\.pipe\.counter\[2\]\$_SDFFE_PP0P_
*1906 genblk1\[3\]\.pipe\.counter\[3\]\$_SDFFE_PP0P_
*1907 genblk1\[3\]\.pipe\.counter\[4\]\$_SDFFE_PP0P_
*1908 genblk1\[3\]\.pipe\.result\[12\]\$_DFFE_PP_
*1909 genblk1\[3\]\.pipe\.result\[13\]\$_DFFE_PP_
*1910 genblk1\[3\]\.pipe\.result\[14\]\$_DFFE_PP_
*1911 genblk1\[3\]\.pipe\.result\[15\]\$_DFFE_PP_
*1912 genblk1\[3\]\.pipe\.state\[0\]\$_DFF_P_
*1913 genblk1\[3\]\.pipe\.state\[1\]\$_DFF_P_
*1914 genblk1\[3\]\.pipe\.this_query\[24\]\$_SDFFE_PP0P_
*1915 genblk1\[3\]\.pipe\.this_query\[25\]\$_SDFFE_PP0P_
*1916 genblk1\[3\]\.pipe\.this_query\[26\]\$_SDFFE_PP0P_
*1917 genblk1\[3\]\.pipe\.this_query\[27\]\$_SDFFE_PP0P_
*1918 genblk1\[3\]\.pipe\.this_query\[28\]\$_SDFFE_PP0P_
*1919 genblk1\[3\]\.pipe\.this_query\[29\]\$_SDFFE_PP0P_
*1920 genblk1\[3\]\.pipe\.this_query\[30\]\$_SDFFE_PP0P_
*1921 genblk1\[3\]\.pipe\.this_query\[31\]\$_SDFFE_PP0P_
*1922 genblk1\[3\]\.pipe\.valid\$_SDFFE_PP0P_
*1923 _1215__1
*1924 _1216__2
*1925 _1217__3
*1926 _1218__4
*1927 _1219__5
*1928 _1220__6
*1929 _1221__7
*1930 _1222__8
*1931 _1223__9
*1932 _1224__10
*1933 _1225__11
*1934 _1226__12
*1935 _1227__13
*1936 _1228__14
*1937 _1229__15
*1938 _1230__16
*1939 _1231__17
*1940 _1232__18
*1941 _1233__19
*1942 _1234__20
*1943 _1235__21
*1944 _1236__22
*1945 _1237__23
*1946 _1238__24
*1947 _1239__25
*1948 _1240__26
*1949 _1241__27
*1950 _1242__28
*1951 _1243__29
*1952 _1244__30
*1953 _1245__31
*1954 _1246__32
*1955 _1247__33
*1956 _1248__34
*1957 _1249__35
*1958 _1250__36
*1959 _1251__37
*1960 _1252__38
*1961 _1253__39
*1962 _1254__40
*1963 _1255__41
*1964 _1256__42
*1965 _1257__43
*1966 _1258__44
*1967 _1259__45
*1968 _1260__46
*1969 _1261__47
*1970 _1262__48
*1971 _1263__49
*1972 _1264__50
*1973 _1265__51
*1974 _1266__52
*1975 _1267__53
*1976 _1268__54
*1977 _1269__55
*1978 _1270__56
*1979 _1271__57
*1980 _1272__58
*1981 _1273__59
*1982 _1274__60
*1983 _1275__61
*1984 _1276__62
*1985 _1277__63
*1986 _1278__64
*1987 _1279__65
*1988 _1280__66
*1989 _1281__67
*1990 _1282__68
*1991 _1283__69
*1992 _1284__70
*1993 _1285__71
*1994 _1286__72
*1995 _1287__73
*1996 _1288__74
*1997 _1289__75
*1998 _1290__76
*1999 _1291__77
*2000 _1292__78
*2001 _1293__79
*2002 _1294__80
*2003 _1295__81
*2004 _1296__82
*2005 _1297__83
*2006 _1298__84
*2007 _1299__85
*2008 _1300__86
*2009 _1301__87
*2010 _1302__88
*2011 _1303__89
*2012 _1304__90
*2013 _1305__91
*2014 _1306__92
*2015 _1307__93
*2016 _1308__94
*2017 _1309__95
*2018 _1310__96
*2019 _1311__97
*2020 _1312__98
*2021 _1313__99
*2022 _1314__100
*2023 _1315__101
*2024 _1316__102
*2025 _1317__103
*2026 _1318__104
*2027 _1319__105
*2028 _1320__106
*2029 _1321__107
*2030 _1322__108
*2031 _1323__109
*2032 _1324__110
*2033 _1325__111
*2034 _1326__112
*2035 genblk1\[0\]\.pipe\.counter\[1\]\$_SDFFE_PP0P__114
*2036 genblk1\[0\]\.pipe\.counter\[2\]\$_SDFFE_PP0P__115
*2037 genblk1\[0\]\.pipe\.counter\[3\]\$_SDFFE_PP0P__116
*2038 genblk1\[0\]\.pipe\.counter\[4\]\$_SDFFE_PP0P__117
*2039 genblk1\[0\]\.pipe\.result\[12\]\$_DFFE_PP__118
*2040 genblk1\[0\]\.pipe\.result\[13\]\$_DFFE_PP__119
*2041 genblk1\[0\]\.pipe\.result\[14\]\$_DFFE_PP__120
*2042 genblk1\[0\]\.pipe\.result\[15\]\$_DFFE_PP__121
*2043 genblk1\[0\]\.pipe\.state\[0\]\$_DFF_P__122
*2044 genblk1\[0\]\.pipe\.state\[1\]\$_DFF_P__123
*2045 genblk1\[0\]\.pipe\.this_query\[24\]\$_SDFFE_PP0P__124
*2046 genblk1\[0\]\.pipe\.this_query\[25\]\$_SDFFE_PP0P__125
*2047 genblk1\[0\]\.pipe\.this_query\[26\]\$_SDFFE_PP0P__126
*2048 genblk1\[0\]\.pipe\.this_query\[27\]\$_SDFFE_PP0P__127
*2049 genblk1\[0\]\.pipe\.this_query\[28\]\$_SDFFE_PP0P__128
*2050 genblk1\[0\]\.pipe\.this_query\[29\]\$_SDFFE_PP0P__129
*2051 genblk1\[0\]\.pipe\.this_query\[30\]\$_SDFFE_PP0P__130
*2052 genblk1\[0\]\.pipe\.this_query\[31\]\$_SDFFE_PP0P__131
*2053 genblk1\[0\]\.pipe\.valid\$_SDFFE_PP0P__132
*2054 genblk1\[1\]\.pipe\.counter\[0\]\$_SDFFE_PP0P__133
*2055 genblk1\[1\]\.pipe\.counter\[1\]\$_SDFFE_PP0P__134
*2056 genblk1\[1\]\.pipe\.counter\[2\]\$_SDFFE_PP0P__135
*2057 genblk1\[1\]\.pipe\.counter\[3\]\$_SDFFE_PP0P__136
*2058 genblk1\[1\]\.pipe\.counter\[4\]\$_SDFFE_PP0P__137
*2059 genblk1\[1\]\.pipe\.result\[12\]\$_DFFE_PP__138
*2060 genblk1\[1\]\.pipe\.result\[13\]\$_DFFE_PP__139
*2061 genblk1\[1\]\.pipe\.result\[14\]\$_DFFE_PP__140
*2062 genblk1\[1\]\.pipe\.result\[15\]\$_DFFE_PP__141
*2063 genblk1\[1\]\.pipe\.state\[0\]\$_DFF_P__142
*2064 genblk1\[1\]\.pipe\.state\[1\]\$_DFF_P__143
*2065 genblk1\[1\]\.pipe\.this_query\[24\]\$_SDFFE_PP0P__144
*2066 genblk1\[1\]\.pipe\.this_query\[25\]\$_SDFFE_PP0P__145
*2067 genblk1\[1\]\.pipe\.this_query\[26\]\$_SDFFE_PP0P__146
*2068 genblk1\[1\]\.pipe\.this_query\[27\]\$_SDFFE_PP0P__147
*2069 genblk1\[1\]\.pipe\.this_query\[28\]\$_SDFFE_PP0P__148
*2070 genblk1\[1\]\.pipe\.this_query\[29\]\$_SDFFE_PP0P__149
*2071 genblk1\[1\]\.pipe\.this_query\[30\]\$_SDFFE_PP0P__150
*2072 genblk1\[1\]\.pipe\.this_query\[31\]\$_SDFFE_PP0P__151
*2073 genblk1\[1\]\.pipe\.valid\$_SDFFE_PP0P__152
*2074 genblk1\[2\]\.pipe\.counter\[0\]\$_SDFFE_PP0P__153
*2075 genblk1\[2\]\.pipe\.counter\[1\]\$_SDFFE_PP0P__154
*2076 genblk1\[2\]\.pipe\.counter\[2\]\$_SDFFE_PP0P__155
*2077 genblk1\[2\]\.pipe\.counter\[3\]\$_SDFFE_PP0P__156
*2078 genblk1\[2\]\.pipe\.counter\[4\]\$_SDFFE_PP0P__157
*2079 genblk1\[2\]\.pipe\.result\[12\]\$_DFFE_PP__158
*2080 genblk1\[2\]\.pipe\.result\[13\]\$_DFFE_PP__159
*2081 genblk1\[2\]\.pipe\.result\[14\]\$_DFFE_PP__160
*2082 genblk1\[2\]\.pipe\.result\[15\]\$_DFFE_PP__161
*2083 genblk1\[2\]\.pipe\.state\[0\]\$_DFF_P__162
*2084 genblk1\[2\]\.pipe\.state\[1\]\$_DFF_P__163
*2085 genblk1\[2\]\.pipe\.this_query\[24\]\$_SDFFE_PP0P__164
*2086 genblk1\[2\]\.pipe\.this_query\[25\]\$_SDFFE_PP0P__165
*2087 genblk1\[2\]\.pipe\.this_query\[26\]\$_SDFFE_PP0P__166
*2088 genblk1\[2\]\.pipe\.this_query\[27\]\$_SDFFE_PP0P__167
*2089 genblk1\[2\]\.pipe\.this_query\[28\]\$_SDFFE_PP0P__168
*2090 genblk1\[2\]\.pipe\.this_query\[29\]\$_SDFFE_PP0P__169
*2091 genblk1\[2\]\.pipe\.this_query\[30\]\$_SDFFE_PP0P__170
*2092 genblk1\[2\]\.pipe\.this_query\[31\]\$_SDFFE_PP0P__171
*2093 genblk1\[2\]\.pipe\.valid\$_SDFFE_PP0P__172
*2094 genblk1\[3\]\.pipe\.counter\[0\]\$_SDFFE_PP0P__173
*2095 genblk1\[3\]\.pipe\.counter\[1\]\$_SDFFE_PP0P__174
*2096 genblk1\[3\]\.pipe\.counter\[2\]\$_SDFFE_PP0P__175
*2097 genblk1\[3\]\.pipe\.counter\[3\]\$_SDFFE_PP0P__176
*2098 genblk1\[3\]\.pipe\.counter\[4\]\$_SDFFE_PP0P__177
*2099 genblk1\[3\]\.pipe\.result\[12\]\$_DFFE_PP__178
*2100 genblk1\[3\]\.pipe\.result\[13\]\$_DFFE_PP__179
*2101 genblk1\[3\]\.pipe\.result\[14\]\$_DFFE_PP__180
*2102 genblk1\[3\]\.pipe\.result\[15\]\$_DFFE_PP__181
*2103 genblk1\[3\]\.pipe\.state\[0\]\$_DFF_P__182
*2104 genblk1\[3\]\.pipe\.state\[1\]\$_DFF_P__183
*2105 genblk1\[3\]\.pipe\.this_query\[24\]\$_SDFFE_PP0P__184
*2106 genblk1\[3\]\.pipe\.this_query\[25\]\$_SDFFE_PP0P__185
*2107 genblk1\[3\]\.pipe\.this_query\[26\]\$_SDFFE_PP0P__186
*2108 genblk1\[3\]\.pipe\.this_query\[27\]\$_SDFFE_PP0P__187
*2109 genblk1\[3\]\.pipe\.this_query\[28\]\$_SDFFE_PP0P__188
*2110 genblk1\[3\]\.pipe\.this_query\[29\]\$_SDFFE_PP0P__189
*2111 genblk1\[3\]\.pipe\.this_query\[30\]\$_SDFFE_PP0P__190
*2112 genblk1\[3\]\.pipe\.this_query\[31\]\$_SDFFE_PP0P__191
*2113 genblk1\[3\]\.pipe\.valid\$_SDFFE_PP0P__192
*2114 FILLER_2_21
*2115 FILLER_2_28
*2116 FILLER_2_35
*2117 FILLER_2_42
*2118 FILLER_2_49
*2119 FILLER_2_56
*2120 FILLER_2_63
*2121 FILLER_2_70
*2122 FILLER_2_77
*2123 FILLER_2_84
*2124 FILLER_2_107
*2125 FILLER_2_112
*2126 FILLER_2_119
*2127 FILLER_2_126
*2128 FILLER_2_133
*2129 FILLER_2_140
*2130 FILLER_2_147
*2131 FILLER_2_156
*2132 FILLER_2_163
*2133 FILLER_2_170
*2134 FILLER_2_172
*2135 FILLER_2_177
*2136 FILLER_2_182
*2137 FILLER_2_189
*2138 FILLER_2_196
*2139 FILLER_2_203
*2140 FILLER_2_210
*2141 FILLER_2_216
*2142 FILLER_2_223
*2143 FILLER_2_230
*2144 FILLER_2_237
*2145 FILLER_2_244
*2146 FILLER_2_251
*2147 FILLER_2_258
*2148 FILLER_2_265
*2149 FILLER_2_272
*2150 FILLER_2_279
*2151 FILLER_2_286
*2152 FILLER_2_293
*2153 FILLER_2_300
*2154 FILLER_2_307
*2155 FILLER_2_314
*2156 FILLER_2_318
*2157 FILLER_3_12
*2158 FILLER_3_19
*2159 FILLER_3_26
*2160 FILLER_3_33
*2161 FILLER_3_40
*2162 FILLER_3_47
*2163 FILLER_3_54
*2164 FILLER_3_61
*2165 FILLER_3_65
*2166 FILLER_3_70
*2167 FILLER_3_94
*2168 FILLER_3_96
*2169 FILLER_3_105
*2170 FILLER_3_117
*2171 FILLER_3_124
*2172 FILLER_3_131
*2173 FILLER_3_138
*2174 FILLER_3_145
*2175 FILLER_3_150
*2176 FILLER_3_157
*2177 FILLER_3_164
*2178 FILLER_3_171
*2179 FILLER_3_178
*2180 FILLER_3_185
*2181 FILLER_3_192
*2182 FILLER_3_199
*2183 FILLER_3_206
*2184 FILLER_3_213
*2185 FILLER_3_220
*2186 FILLER_3_222
*2187 FILLER_3_227
*2188 FILLER_3_234
*2189 FILLER_3_241
*2190 FILLER_3_248
*2191 FILLER_3_255
*2192 FILLER_3_259
*2193 FILLER_3_265
*2194 FILLER_3_269
*2195 FILLER_3_275
*2196 FILLER_3_282
*2197 FILLER_3_289
*2198 FILLER_3_296
*2199 FILLER_3_303
*2200 FILLER_3_310
*2201 FILLER_3_317
*2202 FILLER_3_324
*2203 FILLER_4_0
*2204 FILLER_4_7
*2205 FILLER_4_14
*2206 FILLER_4_21
*2207 FILLER_4_28
*2208 FILLER_4_35
*2209 FILLER_4_42
*2210 FILLER_4_49
*2211 FILLER_4_57
*2212 FILLER_4_84
*2213 FILLER_4_114
*2214 FILLER_4_121
*2215 FILLER_4_128
*2216 FILLER_4_168
*2217 FILLER_4_175
*2218 FILLER_4_182
*2219 FILLER_4_189
*2220 FILLER_4_196
*2221 FILLER_4_203
*2222 FILLER_4_210
*2223 FILLER_4_243
*2224 FILLER_4_250
*2225 FILLER_4_257
*2226 FILLER_4_274
*2227 FILLER_4_284
*2228 FILLER_4_291
*2229 FILLER_4_298
*2230 FILLER_4_305
*2231 FILLER_4_312
*2232 FILLER_4_319
*2233 FILLER_4_326
*2234 FILLER_4_330
*2235 FILLER_5_0
*2236 FILLER_5_7
*2237 FILLER_5_14
*2238 FILLER_5_21
*2239 FILLER_5_28
*2240 FILLER_5_35
*2241 FILLER_5_43
*2242 FILLER_5_73
*2243 FILLER_5_77
*2244 FILLER_5_88
*2245 FILLER_5_90
*2246 FILLER_5_115
*2247 FILLER_5_124
*2248 FILLER_5_131
*2249 FILLER_5_139
*2250 FILLER_5_146
*2251 FILLER_5_151
*2252 FILLER_5_158
*2253 FILLER_5_162
*2254 FILLER_5_168
*2255 FILLER_5_175
*2256 FILLER_5_182
*2257 FILLER_5_191
*2258 FILLER_5_198
*2259 FILLER_5_205
*2260 FILLER_5_212
*2261 FILLER_5_246
*2262 FILLER_5_286
*2263 FILLER_5_293
*2264 FILLER_5_300
*2265 FILLER_5_307
*2266 FILLER_5_314
*2267 FILLER_5_321
*2268 FILLER_5_328
*2269 FILLER_5_330
*2270 FILLER_6_0
*2271 FILLER_6_4
*2272 FILLER_6_36
*2273 FILLER_6_40
*2274 FILLER_6_45
*2275 FILLER_6_61
*2276 FILLER_6_67
*2277 FILLER_6_74
*2278 FILLER_6_96
*2279 FILLER_6_106
*2280 FILLER_6_113
*2281 FILLER_6_119
*2282 FILLER_6_125
*2283 FILLER_6_131
*2284 FILLER_6_137
*2285 FILLER_6_165
*2286 FILLER_6_172
*2287 FILLER_6_174
*2288 FILLER_6_217
*2289 FILLER_6_224
*2290 FILLER_6_231
*2291 FILLER_6_238
*2292 FILLER_6_245
*2293 FILLER_6_252
*2294 FILLER_6_254
*2295 FILLER_6_260
*2296 FILLER_6_267
*2297 FILLER_6_278
*2298 FILLER_6_284
*2299 FILLER_6_290
*2300 FILLER_6_297
*2301 FILLER_6_304
*2302 FILLER_6_311
*2303 FILLER_6_318
*2304 FILLER_6_325
*2305 FILLER_6_329
*2306 FILLER_7_0
*2307 FILLER_7_2
*2308 FILLER_7_7
*2309 FILLER_7_18
*2310 FILLER_7_20
*2311 FILLER_7_47
*2312 FILLER_7_52
*2313 FILLER_7_63
*2314 FILLER_7_70
*2315 FILLER_7_77
*2316 FILLER_7_85
*2317 FILLER_7_98
*2318 FILLER_7_112
*2319 FILLER_7_118
*2320 FILLER_7_128
*2321 FILLER_7_135
*2322 FILLER_7_142
*2323 FILLER_7_147
*2324 FILLER_7_154
*2325 FILLER_7_161
*2326 FILLER_7_168
*2327 FILLER_7_206
*2328 FILLER_7_208
*2329 FILLER_7_228
*2330 FILLER_7_235
*2331 FILLER_7_243
*2332 FILLER_7_250
*2333 FILLER_7_257
*2334 FILLER_7_293
*2335 FILLER_7_300
*2336 FILLER_7_307
*2337 FILLER_7_314
*2338 FILLER_7_321
*2339 FILLER_7_328
*2340 FILLER_7_330
*2341 FILLER_8_4
*2342 FILLER_8_12
*2343 FILLER_8_14
*2344 FILLER_8_42
*2345 FILLER_8_49
*2346 FILLER_8_56
*2347 FILLER_8_63
*2348 FILLER_8_70
*2349 FILLER_8_77
*2350 FILLER_8_84
*2351 FILLER_8_93
*2352 FILLER_8_95
*2353 FILLER_8_127
*2354 FILLER_8_134
*2355 FILLER_8_140
*2356 FILLER_8_142
*2357 FILLER_8_151
*2358 FILLER_8_158
*2359 FILLER_8_165
*2360 FILLER_8_169
*2361 FILLER_8_175
*2362 FILLER_8_193
*2363 FILLER_8_210
*2364 FILLER_8_217
*2365 FILLER_8_224
*2366 FILLER_8_241
*2367 FILLER_8_248
*2368 FILLER_8_255
*2369 FILLER_8_262
*2370 FILLER_8_288
*2371 FILLER_8_295
*2372 FILLER_8_302
*2373 FILLER_8_309
*2374 FILLER_8_316
*2375 FILLER_9_4
*2376 FILLER_9_11
*2377 FILLER_9_18
*2378 FILLER_9_25
*2379 FILLER_9_32
*2380 FILLER_9_39
*2381 FILLER_9_50
*2382 FILLER_9_57
*2383 FILLER_9_63
*2384 FILLER_9_70
*2385 FILLER_9_77
*2386 FILLER_9_84
*2387 FILLER_9_123
*2388 FILLER_9_130
*2389 FILLER_9_137
*2390 FILLER_9_164
*2391 FILLER_9_171
*2392 FILLER_9_178
*2393 FILLER_9_185
*2394 FILLER_9_192
*2395 FILLER_9_199
*2396 FILLER_9_201
*2397 FILLER_9_206
*2398 FILLER_9_213
*2399 FILLER_9_220
*2400 FILLER_9_227
*2401 FILLER_9_234
*2402 FILLER_9_246
*2403 FILLER_9_253
*2404 FILLER_9_260
*2405 FILLER_9_284
*2406 FILLER_9_286
*2407 FILLER_9_296
*2408 FILLER_9_303
*2409 FILLER_9_310
*2410 FILLER_9_317
*2411 FILLER_9_324
*2412 FILLER_9_326
*2413 FILLER_10_0
*2414 FILLER_10_7
*2415 FILLER_10_14
*2416 FILLER_10_18
*2417 FILLER_10_28
*2418 FILLER_10_34
*2419 FILLER_10_36
*2420 FILLER_10_46
*2421 FILLER_10_53
*2422 FILLER_10_86
*2423 FILLER_10_93
*2424 FILLER_10_117
*2425 FILLER_10_124
*2426 FILLER_10_163
*2427 FILLER_10_170
*2428 FILLER_10_177
*2429 FILLER_10_189
*2430 FILLER_10_199
*2431 FILLER_10_205
*2432 FILLER_10_214
*2433 FILLER_10_221
*2434 FILLER_10_228
*2435 FILLER_10_235
*2436 FILLER_10_239
*2437 FILLER_10_264
*2438 FILLER_10_292
*2439 FILLER_10_299
*2440 FILLER_10_306
*2441 FILLER_10_313
*2442 FILLER_10_320
*2443 FILLER_10_327
*2444 FILLER_11_0
*2445 FILLER_11_7
*2446 FILLER_11_34
*2447 FILLER_11_41
*2448 FILLER_11_48
*2449 FILLER_11_55
*2450 FILLER_11_62
*2451 FILLER_11_72
*2452 FILLER_11_79
*2453 FILLER_11_86
*2454 FILLER_11_93
*2455 FILLER_11_100
*2456 FILLER_11_107
*2457 FILLER_11_114
*2458 FILLER_11_121
*2459 FILLER_11_128
*2460 FILLER_11_135
*2461 FILLER_11_139
*2462 FILLER_11_149
*2463 FILLER_11_156
*2464 FILLER_11_163
*2465 FILLER_11_170
*2466 FILLER_11_200
*2467 FILLER_11_202
*2468 FILLER_11_234
*2469 FILLER_11_236
*2470 FILLER_11_244
*2471 FILLER_11_249
*2472 FILLER_11_255
*2473 FILLER_11_261
*2474 FILLER_11_268
*2475 FILLER_11_270
*2476 FILLER_11_275
*2477 FILLER_11_282
*2478 FILLER_11_289
*2479 FILLER_11_296
*2480 FILLER_11_303
*2481 FILLER_11_314
*2482 FILLER_11_321
*2483 FILLER_11_328
*2484 FILLER_11_330
*2485 FILLER_12_0
*2486 FILLER_12_7
*2487 FILLER_12_30
*2488 FILLER_12_39
*2489 FILLER_12_80
*2490 FILLER_12_87
*2491 FILLER_12_94
*2492 FILLER_12_101
*2493 FILLER_12_108
*2494 FILLER_12_115
*2495 FILLER_12_119
*2496 FILLER_12_140
*2497 FILLER_12_147
*2498 FILLER_12_154
*2499 FILLER_12_161
*2500 FILLER_12_168
*2501 FILLER_12_220
*2502 FILLER_12_225
*2503 FILLER_12_232
*2504 FILLER_12_239
*2505 FILLER_12_241
*2506 FILLER_12_247
*2507 FILLER_12_265
*2508 FILLER_12_272
*2509 FILLER_12_278
*2510 FILLER_12_285
*2511 FILLER_12_289
*2512 FILLER_13_0
*2513 FILLER_13_4
*2514 FILLER_13_78
*2515 FILLER_13_106
*2516 FILLER_13_110
*2517 FILLER_13_142
*2518 FILLER_13_152
*2519 FILLER_13_158
*2520 FILLER_13_165
*2521 FILLER_13_172
*2522 FILLER_13_187
*2523 FILLER_13_193
*2524 FILLER_13_200
*2525 FILLER_13_204
*2526 FILLER_13_235
*2527 FILLER_13_242
*2528 FILLER_13_275
*2529 FILLER_13_285
*2530 FILLER_13_292
*2531 FILLER_13_329
*2532 FILLER_14_0
*2533 FILLER_14_7
*2534 FILLER_14_14
*2535 FILLER_14_21
*2536 FILLER_14_28
*2537 FILLER_14_35
*2538 FILLER_14_120
*2539 FILLER_14_172
*2540 FILLER_14_179
*2541 FILLER_14_186
*2542 FILLER_14_195
*2543 FILLER_14_206
*2544 FILLER_14_208
*2545 FILLER_14_218
*2546 FILLER_14_270
*2547 FILLER_14_277
*2548 FILLER_14_289
*2549 FILLER_14_297
*2550 FILLER_14_304
*2551 FILLER_14_311
*2552 FILLER_14_316
*2553 FILLER_14_323
*2554 FILLER_14_330
*2555 FILLER_15_0
*2556 FILLER_15_2
*2557 FILLER_15_7
*2558 FILLER_15_15
*2559 FILLER_15_22
*2560 FILLER_15_29
*2561 FILLER_15_36
*2562 FILLER_15_43
*2563 FILLER_15_65
*2564 FILLER_15_71
*2565 FILLER_15_76
*2566 FILLER_15_96
*2567 FILLER_15_118
*2568 FILLER_15_150
*2569 FILLER_15_157
*2570 FILLER_15_164
*2571 FILLER_15_171
*2572 FILLER_15_178
*2573 FILLER_15_185
*2574 FILLER_15_223
*2575 FILLER_15_230
*2576 FILLER_15_237
*2577 FILLER_15_244
*2578 FILLER_15_251
*2579 FILLER_15_258
*2580 FILLER_15_265
*2581 FILLER_15_272
*2582 FILLER_15_279
*2583 FILLER_15_312
*2584 FILLER_15_319
*2585 FILLER_15_326
*2586 FILLER_16_0
*2587 FILLER_16_7
*2588 FILLER_16_14
*2589 FILLER_16_21
*2590 FILLER_16_28
*2591 FILLER_16_35
*2592 FILLER_16_46
*2593 FILLER_16_53
*2594 FILLER_16_65
*2595 FILLER_16_69
*2596 FILLER_16_78
*2597 FILLER_16_85
*2598 FILLER_16_92
*2599 FILLER_16_99
*2600 FILLER_16_106
*2601 FILLER_16_122
*2602 FILLER_16_149
*2603 FILLER_16_156
*2604 FILLER_16_164
*2605 FILLER_16_171
*2606 FILLER_16_177
*2607 FILLER_16_184
*2608 FILLER_16_193
*2609 FILLER_16_199
*2610 FILLER_16_203
*2611 FILLER_16_208
*2612 FILLER_16_215
*2613 FILLER_16_222
*2614 FILLER_16_229
*2615 FILLER_16_236
*2616 FILLER_16_243
*2617 FILLER_16_247
*2618 FILLER_16_257
*2619 FILLER_16_264
*2620 FILLER_16_268
*2621 FILLER_16_275
*2622 FILLER_16_277
*2623 FILLER_16_311
*2624 FILLER_16_316
*2625 FILLER_16_323
*2626 FILLER_16_330
*2627 FILLER_17_4
*2628 FILLER_17_11
*2629 FILLER_17_18
*2630 FILLER_17_25
*2631 FILLER_17_32
*2632 FILLER_17_62
*2633 FILLER_17_71
*2634 FILLER_17_80
*2635 FILLER_17_87
*2636 FILLER_17_94
*2637 FILLER_17_101
*2638 FILLER_17_108
*2639 FILLER_17_115
*2640 FILLER_17_122
*2641 FILLER_17_129
*2642 FILLER_17_136
*2643 FILLER_17_143
*2644 FILLER_17_150
*2645 FILLER_17_188
*2646 FILLER_17_195
*2647 FILLER_17_222
*2648 FILLER_17_234
*2649 FILLER_17_241
*2650 FILLER_17_267
*2651 FILLER_17_269
*2652 FILLER_17_300
*2653 FILLER_17_305
*2654 FILLER_17_312
*2655 FILLER_17_319
*2656 FILLER_17_326
*2657 FILLER_17_330
*2658 FILLER_18_0
*2659 FILLER_18_5
*2660 FILLER_18_12
*2661 FILLER_18_19
*2662 FILLER_18_26
*2663 FILLER_18_33
*2664 FILLER_18_40
*2665 FILLER_18_47
*2666 FILLER_18_54
*2667 FILLER_18_61
*2668 FILLER_18_63
*2669 FILLER_18_90
*2670 FILLER_18_97
*2671 FILLER_18_104
*2672 FILLER_18_111
*2673 FILLER_18_118
*2674 FILLER_18_125
*2675 FILLER_18_132
*2676 FILLER_18_139
*2677 FILLER_18_146
*2678 FILLER_18_153
*2679 FILLER_18_160
*2680 FILLER_18_200
*2681 FILLER_18_212
*2682 FILLER_18_216
*2683 FILLER_18_222
*2684 FILLER_18_228
*2685 FILLER_18_267
*2686 FILLER_18_274
*2687 FILLER_18_281
*2688 FILLER_18_288
*2689 FILLER_18_295
*2690 FILLER_18_302
*2691 FILLER_18_309
*2692 FILLER_18_316
*2693 FILLER_18_323
*2694 FILLER_18_330
*2695 FILLER_19_0
*2696 FILLER_19_7
*2697 FILLER_19_14
*2698 FILLER_19_21
*2699 FILLER_19_28
*2700 FILLER_19_35
*2701 FILLER_19_42
*2702 FILLER_19_49
*2703 FILLER_19_56
*2704 FILLER_19_58
*2705 FILLER_19_63
*2706 FILLER_19_79
*2707 FILLER_19_86
*2708 FILLER_19_93
*2709 FILLER_19_100
*2710 FILLER_19_107
*2711 FILLER_19_114
*2712 FILLER_19_121
*2713 FILLER_19_128
*2714 FILLER_19_139
*2715 FILLER_19_146
*2716 FILLER_19_160
*2717 FILLER_19_162
*2718 FILLER_19_168
*2719 FILLER_19_172
*2720 FILLER_19_183
*2721 FILLER_19_185
*2722 FILLER_19_195
*2723 FILLER_19_202
*2724 FILLER_19_222
*2725 FILLER_19_234
*2726 FILLER_19_243
*2727 FILLER_19_270
*2728 FILLER_19_277
*2729 FILLER_19_284
*2730 FILLER_19_291
*2731 FILLER_19_298
*2732 FILLER_19_305
*2733 FILLER_19_312
*2734 FILLER_19_319
*2735 FILLER_19_326
*2736 FILLER_19_330
*2737 FILLER_20_4
*2738 FILLER_20_11
*2739 FILLER_20_18
*2740 FILLER_20_25
*2741 FILLER_20_32
*2742 FILLER_20_39
*2743 FILLER_20_46
*2744 FILLER_20_79
*2745 FILLER_20_86
*2746 FILLER_20_93
*2747 FILLER_20_100
*2748 FILLER_20_107
*2749 FILLER_20_114
*2750 FILLER_20_121
*2751 FILLER_20_159
*2752 FILLER_20_166
*2753 FILLER_20_173
*2754 FILLER_20_179
*2755 FILLER_20_186
*2756 FILLER_20_192
*2757 FILLER_20_199
*2758 FILLER_20_206
*2759 FILLER_20_234
*2760 FILLER_20_255
*2761 FILLER_20_262
*2762 FILLER_20_269
*2763 FILLER_20_276
*2764 FILLER_20_283
*2765 FILLER_20_290
*2766 FILLER_20_297
*2767 FILLER_20_304
*2768 FILLER_20_311
*2769 FILLER_20_318
*2770 FILLER_20_325
*2771 FILLER_20_329
*2772 FILLER_21_0
*2773 FILLER_21_7
*2774 FILLER_21_14
*2775 FILLER_21_21
*2776 FILLER_21_28
*2777 FILLER_21_35
*2778 FILLER_21_42
*2779 FILLER_21_49
*2780 FILLER_21_56
*2781 FILLER_21_63
*2782 FILLER_21_70
*2783 FILLER_21_77
*2784 FILLER_21_84
*2785 FILLER_21_91
*2786 FILLER_21_98
*2787 FILLER_21_105
*2788 FILLER_21_112
*2789 FILLER_21_119
*2790 FILLER_21_126
*2791 FILLER_21_133
*2792 FILLER_21_144
*2793 FILLER_21_151
*2794 FILLER_21_158
*2795 FILLER_21_172
*2796 FILLER_21_174
*2797 FILLER_21_179
*2798 FILLER_21_186
*2799 FILLER_21_193
*2800 FILLER_21_200
*2801 FILLER_21_207
*2802 FILLER_21_214
*2803 FILLER_21_219
*2804 FILLER_21_226
*2805 FILLER_21_233
*2806 FILLER_21_240
*2807 FILLER_21_247
*2808 FILLER_21_254
*2809 FILLER_21_261
*2810 FILLER_21_268
*2811 FILLER_21_275
*2812 FILLER_21_282
*2813 FILLER_21_289
*2814 FILLER_21_296
*2815 FILLER_21_303
*2816 FILLER_21_310
*2817 FILLER_21_317
*2818 FILLER_21_324
*2819 FILLER_22_0
*2820 FILLER_22_5
*2821 FILLER_22_12
*2822 FILLER_22_19
*2823 FILLER_22_26
*2824 FILLER_22_33
*2825 FILLER_22_40
*2826 FILLER_22_47
*2827 FILLER_22_54
*2828 FILLER_22_61
*2829 FILLER_22_75
*2830 FILLER_22_82
*2831 FILLER_22_86
*2832 FILLER_22_92
*2833 FILLER_22_99
*2834 FILLER_22_106
*2835 FILLER_22_113
*2836 FILLER_22_120
*2837 FILLER_22_127
*2838 FILLER_22_134
*2839 FILLER_22_141
*2840 FILLER_22_148
*2841 FILLER_22_155
*2842 FILLER_22_162
*2843 FILLER_22_166
*2844 FILLER_22_194
*2845 FILLER_22_205
*2846 FILLER_22_212
*2847 FILLER_22_217
*2848 FILLER_22_224
*2849 FILLER_22_231
*2850 FILLER_22_238
*2851 FILLER_22_249
*2852 FILLER_22_256
*2853 FILLER_22_263
*2854 FILLER_22_265
*2855 FILLER_22_271
*2856 FILLER_22_277
*2857 FILLER_22_282
*2858 FILLER_22_284
*2859 FILLER_22_289
*2860 FILLER_22_296
*2861 FILLER_22_303
*2862 FILLER_22_310
*2863 FILLER_22_317
*2864 FILLER_22_324
*2865 FILLER_23_0
*2866 FILLER_23_7
*2867 FILLER_23_14
*2868 FILLER_23_21
*2869 FILLER_23_28
*2870 FILLER_23_35
*2871 FILLER_23_39
*2872 FILLER_23_44
*2873 FILLER_23_51
*2874 FILLER_23_58
*2875 FILLER_23_86
*2876 FILLER_23_88
*2877 FILLER_23_93
*2878 FILLER_23_101
*2879 FILLER_23_108
*2880 FILLER_23_115
*2881 FILLER_23_122
*2882 FILLER_23_124
*2883 FILLER_23_130
*2884 FILLER_23_137
*2885 FILLER_23_144
*2886 FILLER_23_149
*2887 FILLER_23_156
*2888 FILLER_23_163
*2889 FILLER_23_170
*2890 FILLER_23_177
*2891 FILLER_23_184
*2892 FILLER_23_194
*2893 FILLER_23_201
*2894 FILLER_23_232
*2895 FILLER_23_236
*2896 FILLER_23_296
*2897 FILLER_23_303
*2898 FILLER_23_310
*2899 FILLER_23_317
*2900 FILLER_23_324
*2901 FILLER_24_0
*2902 FILLER_24_7
*2903 FILLER_24_14
*2904 FILLER_24_21
*2905 FILLER_24_28
*2906 FILLER_24_32
*2907 FILLER_24_59
*2908 FILLER_24_66
*2909 FILLER_24_71
*2910 FILLER_24_78
*2911 FILLER_24_82
*2912 FILLER_24_119
*2913 FILLER_24_126
*2914 FILLER_24_130
*2915 FILLER_24_164
*2916 FILLER_24_198
*2917 FILLER_24_244
*2918 FILLER_24_258
*2919 FILLER_24_260
*2920 FILLER_24_302
*2921 FILLER_24_309
*2922 FILLER_24_316
*2923 FILLER_24_323
*2924 FILLER_24_330
*2925 FILLER_25_0
*2926 FILLER_25_7
*2927 FILLER_25_11
*2928 FILLER_25_17
*2929 FILLER_25_24
*2930 FILLER_25_31
*2931 FILLER_25_38
*2932 FILLER_25_42
*2933 FILLER_25_60
*2934 FILLER_25_71
*2935 FILLER_25_73
*2936 FILLER_25_126
*2937 FILLER_25_138
*2938 FILLER_25_145
*2939 FILLER_25_147
*2940 FILLER_25_152
*2941 FILLER_25_159
*2942 FILLER_25_166
*2943 FILLER_25_177
*2944 FILLER_25_184
*2945 FILLER_25_191
*2946 FILLER_25_198
*2947 FILLER_25_214
*2948 FILLER_25_229
*2949 FILLER_25_231
*2950 FILLER_25_238
*2951 FILLER_25_245
*2952 FILLER_25_252
*2953 FILLER_25_254
*2954 FILLER_25_267
*2955 FILLER_25_274
*2956 FILLER_25_276
*2957 FILLER_25_282
*2958 FILLER_25_289
*2959 FILLER_25_296
*2960 FILLER_25_303
*2961 FILLER_25_310
*2962 FILLER_25_317
*2963 FILLER_25_324
*2964 FILLER_26_0
*2965 FILLER_26_33
*2966 FILLER_26_39
*2967 FILLER_26_76
*2968 FILLER_26_85
*2969 FILLER_26_128
*2970 FILLER_26_135
*2971 FILLER_26_172
*2972 FILLER_26_179
*2973 FILLER_26_186
*2974 FILLER_26_193
*2975 FILLER_26_205
*2976 FILLER_26_207
*2977 FILLER_26_213
*2978 FILLER_26_220
*2979 FILLER_26_227
*2980 FILLER_26_234
*2981 FILLER_26_241
*2982 FILLER_26_248
*2983 FILLER_26_256
*2984 FILLER_26_268
*2985 FILLER_26_275
*2986 FILLER_26_282
*2987 FILLER_26_286
*2988 FILLER_26_292
*2989 FILLER_26_299
*2990 FILLER_26_306
*2991 FILLER_26_313
*2992 FILLER_26_320
*2993 FILLER_26_327
*2994 FILLER_27_0
*2995 FILLER_27_4
*2996 FILLER_27_36
*2997 FILLER_27_38
*2998 FILLER_27_44
*2999 FILLER_27_69
*3000 FILLER_27_76
*3001 FILLER_27_83
*3002 FILLER_27_85
*3003 FILLER_27_90
*3004 FILLER_27_103
*3005 FILLER_27_110
*3006 FILLER_27_117
*3007 FILLER_27_148
*3008 FILLER_27_155
*3009 FILLER_27_162
*3010 FILLER_27_166
*3011 FILLER_27_178
*3012 FILLER_27_180
*3013 FILLER_27_230
*3014 FILLER_27_237
*3015 FILLER_27_269
*3016 FILLER_27_299
*3017 FILLER_27_310
*3018 FILLER_27_317
*3019 FILLER_27_324
*3020 FILLER_28_0
*3021 FILLER_28_7
*3022 FILLER_28_11
*3023 FILLER_28_17
*3024 FILLER_28_21
*3025 FILLER_28_69
*3026 FILLER_28_110
*3027 FILLER_28_117
*3028 FILLER_28_124
*3029 FILLER_28_151
*3030 FILLER_28_158
*3031 FILLER_28_165
*3032 FILLER_28_241
*3033 FILLER_28_246
*3034 FILLER_28_253
*3035 FILLER_28_260
*3036 FILLER_28_267
*3037 FILLER_28_271
*3038 FILLER_28_306
*3039 FILLER_28_313
*3040 FILLER_28_320
*3041 FILLER_28_328
*3042 FILLER_28_330
*3043 FILLER_29_0
*3044 FILLER_29_7
*3045 FILLER_29_14
*3046 FILLER_29_21
*3047 FILLER_29_28
*3048 FILLER_29_35
*3049 FILLER_29_41
*3050 FILLER_29_48
*3051 FILLER_29_74
*3052 FILLER_29_83
*3053 FILLER_29_90
*3054 FILLER_29_97
*3055 FILLER_29_104
*3056 FILLER_29_111
*3057 FILLER_29_157
*3058 FILLER_29_164
*3059 FILLER_29_171
*3060 FILLER_29_178
*3061 FILLER_29_185
*3062 FILLER_29_191
*3063 FILLER_29_223
*3064 FILLER_29_232
*3065 FILLER_29_234
*3066 FILLER_29_282
*3067 FILLER_29_286
*3068 FILLER_29_323
*3069 FILLER_29_330
*3070 FILLER_30_0
*3071 FILLER_30_7
*3072 FILLER_30_14
*3073 FILLER_30_26
*3074 FILLER_30_32
*3075 FILLER_30_39
*3076 FILLER_30_44
*3077 FILLER_30_52
*3078 FILLER_30_61
*3079 FILLER_30_65
*3080 FILLER_30_71
*3081 FILLER_30_78
*3082 FILLER_30_85
*3083 FILLER_30_92
*3084 FILLER_30_99
*3085 FILLER_30_106
*3086 FILLER_30_113
*3087 FILLER_30_117
*3088 FILLER_30_129
*3089 FILLER_30_137
*3090 FILLER_30_145
*3091 FILLER_30_152
*3092 FILLER_30_159
*3093 FILLER_30_166
*3094 FILLER_30_173
*3095 FILLER_30_184
*3096 FILLER_30_188
*3097 FILLER_30_203
*3098 FILLER_30_205
*3099 FILLER_30_214
*3100 FILLER_30_223
*3101 FILLER_30_230
*3102 FILLER_30_234
*3103 FILLER_30_241
*3104 FILLER_30_248
*3105 FILLER_30_279
*3106 FILLER_30_284
*3107 FILLER_30_291
*3108 FILLER_30_298
*3109 FILLER_30_305
*3110 FILLER_30_310
*3111 FILLER_30_317
*3112 FILLER_30_324
*3113 FILLER_31_0
*3114 FILLER_31_43
*3115 FILLER_31_80
*3116 FILLER_31_87
*3117 FILLER_31_95
*3118 FILLER_31_102
*3119 FILLER_31_109
*3120 FILLER_31_113
*3121 FILLER_31_123
*3122 FILLER_31_130
*3123 FILLER_31_137
*3124 FILLER_31_144
*3125 FILLER_31_151
*3126 FILLER_31_157
*3127 FILLER_31_164
*3128 FILLER_31_171
*3129 FILLER_31_204
*3130 FILLER_31_211
*3131 FILLER_31_218
*3132 FILLER_31_230
*3133 FILLER_31_237
*3134 FILLER_31_244
*3135 FILLER_31_252
*3136 FILLER_31_291
*3137 FILLER_31_298
*3138 FILLER_31_305
*3139 FILLER_31_312
*3140 FILLER_31_319
*3141 FILLER_31_326
*3142 FILLER_31_330
*3143 FILLER_32_0
*3144 FILLER_32_5
*3145 FILLER_32_32
*3146 FILLER_32_51
*3147 FILLER_32_56
*3148 FILLER_32_60
*3149 FILLER_32_69
*3150 FILLER_32_129
*3151 FILLER_32_136
*3152 FILLER_32_152
*3153 FILLER_32_159
*3154 FILLER_32_166
*3155 FILLER_32_173
*3156 FILLER_32_180
*3157 FILLER_32_187
*3158 FILLER_32_191
*3159 FILLER_32_240
*3160 FILLER_32_247
*3161 FILLER_32_254
*3162 FILLER_32_261
*3163 FILLER_32_275
*3164 FILLER_32_286
*3165 FILLER_32_290
*3166 FILLER_33_4
*3167 FILLER_33_11
*3168 FILLER_33_24
*3169 FILLER_33_34
*3170 FILLER_33_51
*3171 FILLER_33_55
*3172 FILLER_33_62
*3173 FILLER_33_64
*3174 FILLER_33_70
*3175 FILLER_33_77
*3176 FILLER_33_84
*3177 FILLER_33_91
*3178 FILLER_33_97
*3179 FILLER_33_103
*3180 FILLER_33_115
*3181 FILLER_33_138
*3182 FILLER_33_165
*3183 FILLER_33_169
*3184 FILLER_33_196
*3185 FILLER_33_210
*3186 FILLER_33_215
*3187 FILLER_33_227
*3188 FILLER_33_234
*3189 FILLER_33_241
*3190 FILLER_33_243
*3191 FILLER_33_249
*3192 FILLER_33_256
*3193 FILLER_33_263
*3194 FILLER_33_270
*3195 FILLER_33_317
*3196 FILLER_33_322
*3197 FILLER_33_329
*3198 FILLER_34_0
*3199 FILLER_34_7
*3200 FILLER_34_14
*3201 FILLER_34_18
*3202 FILLER_34_46
*3203 FILLER_34_58
*3204 FILLER_34_65
*3205 FILLER_34_72
*3206 FILLER_34_79
*3207 FILLER_34_86
*3208 FILLER_34_93
*3209 FILLER_34_100
*3210 FILLER_34_107
*3211 FILLER_34_114
*3212 FILLER_34_126
*3213 FILLER_34_130
*3214 FILLER_34_136
*3215 FILLER_34_170
*3216 FILLER_34_211
*3217 FILLER_34_215
*3218 FILLER_34_221
*3219 FILLER_34_233
*3220 FILLER_34_240
*3221 FILLER_34_247
*3222 FILLER_34_254
*3223 FILLER_34_265
*3224 FILLER_34_269
*3225 FILLER_34_280
*3226 FILLER_34_282
*3227 FILLER_34_288
*3228 FILLER_34_295
*3229 FILLER_34_300
*3230 FILLER_34_307
*3231 FILLER_34_314
*3232 FILLER_34_321
*3233 FILLER_34_328
*3234 FILLER_34_330
*3235 FILLER_35_0
*3236 FILLER_35_7
*3237 FILLER_35_14
*3238 FILLER_35_21
*3239 FILLER_35_25
*3240 FILLER_35_30
*3241 FILLER_35_37
*3242 FILLER_35_44
*3243 FILLER_35_51
*3244 FILLER_35_58
*3245 FILLER_35_65
*3246 FILLER_35_72
*3247 FILLER_35_79
*3248 FILLER_35_86
*3249 FILLER_35_95
*3250 FILLER_35_102
*3251 FILLER_35_114
*3252 FILLER_35_126
*3253 FILLER_35_133
*3254 FILLER_35_140
*3255 FILLER_35_147
*3256 FILLER_35_151
*3257 FILLER_35_157
*3258 FILLER_35_164
*3259 FILLER_35_171
*3260 FILLER_35_179
*3261 FILLER_35_186
*3262 FILLER_35_192
*3263 FILLER_35_199
*3264 FILLER_35_206
*3265 FILLER_35_213
*3266 FILLER_35_220
*3267 FILLER_35_227
*3268 FILLER_35_233
*3269 FILLER_35_240
*3270 FILLER_35_247
*3271 FILLER_35_258
*3272 FILLER_35_267
*3273 FILLER_35_278
*3274 FILLER_35_285
*3275 FILLER_35_292
*3276 FILLER_35_299
*3277 FILLER_35_306
*3278 FILLER_35_313
*3279 FILLER_35_320
*3280 FILLER_35_327
*3281 FILLER_36_4
*3282 FILLER_36_11
*3283 FILLER_36_18
*3284 FILLER_36_25
*3285 FILLER_36_32
*3286 FILLER_36_39
*3287 FILLER_36_46
*3288 FILLER_36_53
*3289 FILLER_36_61
*3290 FILLER_36_68
*3291 FILLER_36_85
*3292 FILLER_36_100
*3293 FILLER_36_104
*3294 FILLER_36_110
*3295 FILLER_36_112
*3296 FILLER_36_118
*3297 FILLER_36_138
*3298 FILLER_36_145
*3299 FILLER_36_152
*3300 FILLER_36_159
*3301 FILLER_36_166
*3302 FILLER_36_173
*3303 FILLER_36_180
*3304 FILLER_36_184
*3305 FILLER_36_216
*3306 FILLER_36_223
*3307 FILLER_36_230
*3308 FILLER_36_250
*3309 FILLER_36_287
*3310 FILLER_36_294
*3311 FILLER_36_301
*3312 FILLER_36_308
*3313 FILLER_36_315
*3314 FILLER_36_322
*3315 FILLER_36_329
*3316 FILLER_37_8
*3317 FILLER_37_15
*3318 FILLER_37_22
*3319 FILLER_37_29
*3320 FILLER_37_36
*3321 FILLER_37_43
*3322 FILLER_37_47
*3323 FILLER_37_84
*3324 FILLER_37_115
*3325 FILLER_37_142
*3326 FILLER_37_149
*3327 FILLER_37_156
*3328 FILLER_37_163
*3329 FILLER_37_170
*3330 FILLER_37_177
*3331 FILLER_37_184
*3332 FILLER_37_191
*3333 FILLER_37_197
*3334 FILLER_37_204
*3335 FILLER_37_211
*3336 FILLER_37_213
*3337 FILLER_37_237
*3338 FILLER_37_295
*3339 FILLER_37_302
*3340 FILLER_37_309
*3341 FILLER_37_316
*3342 FILLER_37_323
*3343 FILLER_37_330
*3344 FILLER_38_4
*3345 FILLER_38_9
*3346 FILLER_38_16
*3347 FILLER_38_23
*3348 FILLER_38_30
*3349 FILLER_38_37
*3350 FILLER_38_44
*3351 FILLER_38_72
*3352 FILLER_38_84
*3353 FILLER_38_97
*3354 FILLER_38_137
*3355 FILLER_38_144
*3356 FILLER_38_151
*3357 FILLER_38_158
*3358 FILLER_38_165
*3359 FILLER_38_172
*3360 FILLER_38_179
*3361 FILLER_38_183
*3362 FILLER_38_211
*3363 FILLER_38_217
*3364 FILLER_38_230
*3365 FILLER_38_254
*3366 FILLER_38_260
*3367 FILLER_38_265
*3368 FILLER_38_270
*3369 FILLER_38_284
*3370 FILLER_38_289
*3371 FILLER_38_296
*3372 FILLER_38_303
*3373 FILLER_38_310
*3374 FILLER_38_317
*3375 FILLER_38_324
*3376 FILLER_39_4
*3377 FILLER_39_6
*3378 FILLER_39_11
*3379 FILLER_39_13
*3380 FILLER_39_18
*3381 FILLER_39_25
*3382 FILLER_39_32
*3383 FILLER_39_39
*3384 FILLER_39_46
*3385 FILLER_39_50
*3386 FILLER_39_55
*3387 FILLER_39_62
*3388 FILLER_39_69
*3389 FILLER_39_71
*3390 FILLER_39_87
*3391 FILLER_39_109
*3392 FILLER_39_115
*3393 FILLER_39_122
*3394 FILLER_39_129
*3395 FILLER_39_136
*3396 FILLER_39_143
*3397 FILLER_39_150
*3398 FILLER_39_157
*3399 FILLER_39_164
*3400 FILLER_39_171
*3401 FILLER_39_178
*3402 FILLER_39_185
*3403 FILLER_39_196
*3404 FILLER_39_203
*3405 FILLER_39_210
*3406 FILLER_39_217
*3407 FILLER_39_224
*3408 FILLER_39_231
*3409 FILLER_39_236
*3410 FILLER_39_242
*3411 FILLER_39_255
*3412 FILLER_39_278
*3413 FILLER_39_285
*3414 FILLER_39_292
*3415 FILLER_39_299
*3416 FILLER_39_306
*3417 FILLER_39_313
*3418 FILLER_39_320
*3419 FILLER_39_327
*3420 FILLER_40_0
*3421 FILLER_40_5
*3422 FILLER_40_12
*3423 FILLER_40_19
*3424 FILLER_40_26
*3425 FILLER_40_33
*3426 FILLER_40_40
*3427 FILLER_40_47
*3428 FILLER_40_54
*3429 FILLER_40_61
*3430 FILLER_40_68
*3431 FILLER_40_75
*3432 FILLER_40_82
*3433 FILLER_40_89
*3434 FILLER_40_96
*3435 FILLER_40_103
*3436 FILLER_40_110
*3437 FILLER_40_117
*3438 FILLER_40_124
*3439 FILLER_40_131
*3440 FILLER_40_138
*3441 FILLER_40_145
*3442 FILLER_40_152
*3443 FILLER_40_159
*3444 FILLER_40_166
*3445 FILLER_40_173
*3446 FILLER_40_180
*3447 FILLER_40_187
*3448 FILLER_40_194
*3449 FILLER_40_201
*3450 FILLER_40_208
*3451 FILLER_40_215
*3452 FILLER_40_222
*3453 FILLER_40_229
*3454 FILLER_40_236
*3455 FILLER_40_243
*3456 FILLER_40_250
*3457 FILLER_40_257
*3458 FILLER_40_264
*3459 FILLER_40_271
*3460 FILLER_40_278
*3461 FILLER_40_285
*3462 FILLER_40_292
*3463 FILLER_40_299
*3464 FILLER_40_306
*3465 FILLER_40_313
*3466 FILLER_40_320
*3467 FILLER_40_327

*PORTS
clk I
queries[0] I
queries[100] I
queries[101] I
queries[102] I
queries[103] I
queries[104] I
queries[105] I
queries[106] I
queries[107] I
queries[108] I
queries[109] I
queries[10] I
queries[110] I
queries[111] I
queries[112] I
queries[113] I
queries[114] I
queries[115] I
queries[116] I
queries[117] I
queries[118] I
queries[119] I
queries[11] I
queries[120] I
queries[121] I
queries[122] I
queries[123] I
queries[124] I
queries[125] I
queries[126] I
queries[127] I
queries[12] I
queries[13] I
queries[14] I
queries[15] I
queries[16] I
queries[17] I
queries[18] I
queries[19] I
queries[1] I
queries[20] I
queries[21] I
queries[22] I
queries[23] I
queries[24] I
queries[25] I
queries[26] I
queries[27] I
queries[28] I
queries[29] I
queries[2] I
queries[30] I
queries[31] I
queries[32] I
queries[33] I
queries[34] I
queries[35] I
queries[36] I
queries[37] I
queries[38] I
queries[39] I
queries[3] I
queries[40] I
queries[41] I
queries[42] I
queries[43] I
queries[44] I
queries[45] I
queries[46] I
queries[47] I
queries[48] I
queries[49] I
queries[4] I
queries[50] I
queries[51] I
queries[52] I
queries[53] I
queries[54] I
queries[55] I
queries[56] I
queries[57] I
queries[58] I
queries[59] I
queries[5] I
queries[60] I
queries[61] I
queries[62] I
queries[63] I
queries[64] I
queries[65] I
queries[66] I
queries[67] I
queries[68] I
queries[69] I
queries[6] I
queries[70] I
queries[71] I
queries[72] I
queries[73] I
queries[74] I
queries[75] I
queries[76] I
queries[77] I
queries[78] I
queries[79] I
queries[7] I
queries[80] I
queries[81] I
queries[82] I
queries[83] I
queries[84] I
queries[85] I
queries[86] I
queries[87] I
queries[88] I
queries[89] I
queries[8] I
queries[90] I
queries[91] I
queries[92] I
queries[93] I
queries[94] I
queries[95] I
queries[96] I
queries[97] I
queries[98] I
queries[99] I
queries[9] I
ready I
reset I
results[0] O
results[100] O
results[101] O
results[102] O
results[103] O
results[104] O
results[105] O
results[106] O
results[107] O
results[108] O
results[109] O
results[10] O
results[110] O
results[111] O
results[112] O
results[113] O
results[114] O
results[115] O
results[116] O
results[117] O
results[118] O
results[119] O
results[11] O
results[120] O
results[121] O
results[122] O
results[123] O
results[124] O
results[125] O
results[126] O
results[127] O
results[12] O
results[13] O
results[14] O
results[15] O
results[16] O
results[17] O
results[18] O
results[19] O
results[1] O
results[20] O
results[21] O
results[22] O
results[23] O
results[24] O
results[25] O
results[26] O
results[27] O
results[28] O
results[29] O
results[2] O
results[30] O
results[31] O
results[32] O
results[33] O
results[34] O
results[35] O
results[36] O
results[37] O
results[38] O
results[39] O
results[3] O
results[40] O
results[41] O
results[42] O
results[43] O
results[44] O
results[45] O
results[46] O
results[47] O
results[48] O
results[49] O
results[4] O
results[50] O
results[51] O
results[52] O
results[53] O
results[54] O
results[55] O
results[56] O
results[57] O
results[58] O
results[59] O
results[5] O
results[60] O
results[61] O
results[62] O
results[63] O
results[64] O
results[65] O
results[66] O
results[67] O
results[68] O
results[69] O
results[6] O
results[70] O
results[71] O
results[72] O
results[73] O
results[74] O
results[75] O
results[76] O
results[77] O
results[78] O
results[79] O
results[7] O
results[80] O
results[81] O
results[82] O
results[83] O
results[84] O
results[85] O
results[86] O
results[87] O
results[88] O
results[89] O
results[8] O
results[90] O
results[91] O
results[92] O
results[93] O
results[94] O
results[95] O
results[96] O
results[97] O
results[98] O
results[99] O
results[9] O
valid O

*D_NET *1 0.00129924
*CONN
*I *1852:D I *D sg13g2_dfrbp_1
*I *1168:X O *D sg13g2_a21o_1
*CAP
1 *1852:D 0.000200484
2 *1168:X 0.000211753
3 *1:8 0.000412237
4 *1852:D *1810:A 0
5 *1852:D *982:51 0.000394118
6 *1:8 *993:10 0
7 *1:8 *993:16 8.06499e-05
8 *1:8 *1092:8 0
*RES
1 *1168:X *1:8 41.7512 
2 *1:8 *1852:D 42.4112 
*END

*D_NET *2 0.000901137
*CONN
*I *1853:D I *D sg13g2_dfrbp_1
*I *1180:Y O *D sg13g2_a21oi_1
*CAP
1 *1853:D 0.00043952
2 *1180:Y 0.00043952
3 *1853:D *1180:A1 0
4 *1853:D *1784:A 0
5 *1853:D *1853:RESET_B 0
6 *1853:D *214:22 0
7 *1853:D *228:31 0
8 *1853:D *982:73 2.20968e-05
9 *1853:D *993:57 0
*RES
1 *1180:Y *1853:D 43.784 
*END

*D_NET *3 0.000434298
*CONN
*I *1872:D I *D sg13g2_dfrbp_1
*I *1192:X O *D sg13g2_a21o_1
*CAP
1 *1872:D 0.000217149
2 *1192:X 0.000217149
3 *1872:D *1192:A2 0
4 *1872:D *988:21 0
*RES
1 *1192:X *1872:D 41.8392 
*END

*D_NET *4 0.000350822
*CONN
*I *1873:D I *D sg13g2_dfrbp_1
*I *1186:Y O *D sg13g2_a21oi_1
*CAP
1 *1873:D 8.44918e-05
2 *1186:Y 8.44918e-05
3 *1873:D *1186:A1 0.000181839
4 *1873:D *1186:A2 0
*RES
1 *1186:Y *1873:D 40.9328 
*END

*D_NET *5 0.000525686
*CONN
*I *1892:D I *D sg13g2_dfrbp_1
*I *1181:X O *D sg13g2_a21o_1
*CAP
1 *1892:D 2.56435e-05
2 *1181:X 0.000199635
3 *5:8 0.000225278
4 *1892:D *991:10 7.51291e-05
5 *5:8 *991:10 0
*RES
1 *1181:X *5:8 41.7512 
2 *5:8 *1892:D 40.2992 
*END

*D_NET *6 0.000461398
*CONN
*I *1893:D I *D sg13g2_dfrbp_1
*I *1175:Y O *D sg13g2_a21oi_1
*CAP
1 *1893:D 0.000166598
2 *1175:Y 0.000166598
3 *1893:D *1437:B 0
4 *1893:D *1627:B 0.000128201
5 *1893:D *462:10 0
*RES
1 *1175:Y *1893:D 41.7072 
*END

*D_NET *7 0.000589084
*CONN
*I *1912:D I *D sg13g2_dfrbp_1
*I *1167:X O *D sg13g2_a21o_1
*CAP
1 *1912:D 0.000294542
2 *1167:X 0.000294542
3 *1912:D *1809:A 0
*RES
1 *1167:X *1912:D 43.0624 
*END

*D_NET *8 0.00115828
*CONN
*I *1913:D I *D sg13g2_dfrbp_1
*I *1191:Y O *D sg13g2_a21oi_1
*CAP
1 *1913:D 0.000389131
2 *1191:Y 0.000389131
3 *1913:D *1913:CLK 0
4 *1913:D *1913:RESET_B 0.000176491
5 *1913:D *530:8 0.000181799
6 *1913:D *990:46 2.17274e-05
7 *1913:D *990:56 0
8 *1913:D *1032:23 0
*RES
1 *1191:Y *1913:D 43.9688 
*END

*D_NET *9 0.0020393
*CONN
*I *1212:B1 I *D sg13g2_o21ai_1
*I *1250:A I *D sg13g2_inv_1
*I *1857:Q_N O *D sg13g2_dfrbp_1
*CAP
1 *1212:B1 5.30874e-05
2 *1250:A 0
3 *1857:Q_N 0.000298632
4 *9:12 0.000269913
5 *9:6 0.000621632
6 *1212:B1 *1211:B1 7.51688e-05
7 *1212:B1 *1211:A2 0
8 *1212:B1 *1212:A2 1.49483e-05
9 *9:6 *1211:B1 0.000106065
10 *9:6 *1212:A1 9.89225e-05
11 *9:6 *657:6 0.000500937
12 *9:12 *240:60 0
13 *9:12 *657:10 0
*RES
1 *1857:Q_N *9:6 23.256 
2 *9:6 *9:12 41.7512 
3 *9:12 *1250:A 20 
4 *9:6 *1212:B1 20.572 
*END

*D_NET *10 0.00503135
*CONN
*I *1674:A I *D sg13g2_nor2_1
*I *1628:A2 I *D sg13g2_a21oi_1
*I *1636:B I *D sg13g2_nor3_1
*I *1625:A I *D sg13g2_or2_1
*I *1893:Q_N O *D sg13g2_dfrbp_1
*CAP
1 *1674:A 0
2 *1628:A2 4.60366e-05
3 *1636:B 0.000409654
4 *1625:A 0
5 *1893:Q_N 0.000408133
6 *10:42 0.000618722
7 *10:12 0.000409654
8 *10:10 0.000980819
9 *1628:A2 *1628:A1 0.000128351
10 *1628:A2 *464:25 0
11 *1636:B *1632:B 0.000447339
12 *1636:B *1633:A 0.000288281
13 *1636:B *1636:A 4.79124e-05
14 *1636:B *1636:C 3.24568e-05
15 *1636:B *462:16 0.000197294
16 *1636:B *466:12 0
17 *1636:B *683:21 0
18 *10:10 *1169:A 0.00023398
19 *10:10 *1175:A1 0
20 *10:10 *1893:CLK 0
21 *10:10 *129:10 0
22 *10:10 *463:12 0.000112486
23 *10:10 *972:9 0
24 *10:42 *1441:B 0
25 *10:42 *1674:B 0.000128351
26 *10:42 *1675:A1 0.000242551
27 *10:42 *463:12 6.48756e-05
28 *10:42 *464:25 0.000234455
29 *10:42 *466:12 0
30 *10:42 *972:22 0
*RES
1 *1893:Q_N *10:10 43.8984 
2 *10:10 *10:12 20 
3 *10:12 *1625:A 20 
4 *10:12 *1636:B 24.8576 
5 *10:10 *10:42 25.7024 
6 *10:42 *1628:A2 20.5104 
7 *10:42 *1674:A 20 
*END

*D_NET *11 0.00203635
*CONN
*I *1492:B_N I *D sg13g2_nor2b_1
*I *1478:A1 I *D sg13g2_mux2_1
*I *1917:Q_N O *D sg13g2_dfrbp_1
*CAP
1 *1492:B_N 0.000305662
2 *1478:A1 9.69523e-05
3 *1917:Q_N 0.000327706
4 *11:8 0.000730321
5 *1478:A1 *478:39 0.000112425
6 *1478:A1 *498:35 0
7 *1478:A1 *976:42 7.51291e-05
8 *1492:B_N *1481:A2 0
9 *1492:B_N *478:27 8.02233e-05
10 *1492:B_N *478:39 0.000228109
11 *1492:B_N *500:10 7.98231e-05
12 *1492:B_N *1015:38 0
13 *11:8 *1483:A0 0
14 *11:8 *1483:A1 0
15 *11:8 *1483:S 0
16 *11:8 *1484:B 0
17 *11:8 *976:42 0
*RES
1 *1917:Q_N *11:8 42.6224 
2 *11:8 *1478:A1 40.9416 
3 *11:8 *1492:B_N 42.86 
*END

*D_NET *12 0.00642554
*CONN
*I *1218:B I *D sg13g2_nor2_1
*I *1227:A I *D sg13g2_inv_1
*I *1256:D I *D sg13g2_nor4_1
*I *1205:A2 I *D sg13g2_o21ai_1
*I *1861:Q_N O *D sg13g2_dfrbp_1
*CAP
1 *1218:B 8.83204e-05
2 *1227:A 0.000482626
3 *1256:D 5.06081e-05
4 *1205:A2 0.000242477
5 *1861:Q_N 0.000278136
6 *12:29 0.000613945
7 *12:16 0.00106469
8 *12:6 0.00110796
9 *1205:A2 *1207:A0 0
10 *1205:A2 *1240:A1 0.00017595
11 *1205:A2 *1249:A1 9.83649e-05
12 *1205:A2 *1256:B 0
13 *1205:A2 *237:14 0
14 *1205:A2 *263:10 0
15 *1218:B *1218:A 2.21365e-05
16 *1218:B *1220:A1 0
17 *1218:B *1220:A2 3.7631e-05
18 *1218:B *661:16 0
19 *1227:A *1240:A1 0.000565855
20 *1227:A *1246:A1 0
21 *1227:A *1255:B 0
22 *1227:A *272:24 0
23 *1227:A *273:12 0.000127784
24 *1227:A *288:6 0
25 *1256:D *1257:B 0
26 *1256:D *258:22 0
27 *12:6 *1560:A 0
28 *12:6 *661:16 0
29 *12:16 *1220:A2 0
30 *12:16 *1225:A1 7.51291e-05
31 *12:16 *1225:A2 0
32 *12:16 *1256:B 0.000180503
33 *12:16 *1257:B 0
34 *12:16 *14:8 0
35 *12:16 *258:14 0.000388794
36 *12:16 *263:10 0
37 *12:16 *661:35 0.000553176
38 *12:16 *661:88 0.000128161
39 *12:16 *996:16 0
40 *12:29 *1240:A1 0.000143296
41 *12:29 *254:38 0
*RES
1 *1861:Q_N *12:6 22.6224 
2 *12:6 *12:16 27.4272 
3 *12:16 *1205:A2 41.9448 
4 *12:16 *12:29 0.8272 
5 *12:29 *1256:D 40.3784 
6 *12:29 *1227:A 44.6464 
7 *12:6 *1218:B 21.144 
*END

*D_NET *13 0.00584378
*CONN
*I *1409:A I *D sg13g2_nor2_1
*I *1380:C I *D sg13g2_nor3_1
*I *1400:A1 I *D sg13g2_o21ai_1
*I *1371:B I *D sg13g2_or2_1
*I *1414:D I *D sg13g2_or4_1
*I *1901:Q_N O *D sg13g2_dfrbp_1
*CAP
1 *1409:A 6.32996e-05
2 *1380:C 0.000168046
3 *1400:A1 0
4 *1371:B 2.48329e-05
5 *1414:D 6.41192e-05
6 *1901:Q_N 0.000382656
7 *13:46 0.000755544
8 *13:34 0.00122325
9 *13:25 0.00043401
10 *13:23 0.00035089
11 *13:10 0.000624852
12 *1380:C *1377:A 0
13 *1380:C *1379:B_N 0
14 *1380:C *1380:A 0.000159435
15 *1380:C *1012:97 3.1684e-05
16 *1409:A *1409:B 0
17 *1409:A *1012:61 0
18 *1414:D *1414:C 5.30866e-05
19 *13:10 *1414:C 0
20 *13:10 *1899:RESET_B 0.000394346
21 *13:10 *691:8 0
22 *13:10 *693:12 0
23 *13:23 *1414:A 0
24 *13:23 *1414:C 0
25 *13:23 *693:12 0
26 *13:23 *1012:57 0
27 *13:23 *1014:27 0
28 *13:25 *1012:61 0
29 *13:34 *1372:A2 0.000127783
30 *13:34 *1372:B1 7.51291e-05
31 *13:34 *1380:A 0.000181233
32 *13:34 *1409:B 0
33 *13:34 *406:14 0.000101645
34 *13:34 *693:23 0
35 *13:34 *1012:61 0
36 *13:46 *1408:B 0
37 *13:46 *1416:B1 0
38 *13:46 *397:14 0
39 *13:46 *405:8 0
40 *13:46 *406:32 0
41 *13:46 *407:28 0
42 *13:46 *422:10 0.000533516
43 *13:46 *429:28 4.77421e-05
44 *13:46 *693:38 0
45 *13:46 *1011:84 4.66761e-05
*RES
1 *1901:Q_N *13:10 24.1448 
2 *13:10 *1414:D 20.8448 
3 *13:10 *13:23 1.7776 
4 *13:23 *13:25 1.1968 
5 *13:25 *1371:B 20.1584 
6 *13:25 *13:34 3.0448 
7 *13:34 *13:46 45.973 
8 *13:46 *1400:A1 20 
9 *13:34 *1380:C 21.7204 
10 *13:23 *1409:A 20.7568 
*END

*D_NET *14 0.00395556
*CONN
*I *1219:A2 I *D sg13g2_a21oi_1
*I *1249:A1 I *D sg13g2_o21ai_1
*I *1213:A I *D sg13g2_inv_1
*I *1859:Q_N O *D sg13g2_dfrbp_1
*CAP
1 *1219:A2 0
2 *1249:A1 0.000170185
3 *1213:A 0.00065633
4 *1859:Q_N 0.000283094
5 *14:31 0.000653745
6 *14:10 0.00113989
7 *14:8 0.000283094
8 *1213:A *1214:A0 0
9 *1213:A *1214:A1 0
10 *1213:A *247:10 0
11 *1213:A *996:24 0
12 *1213:A *998:24 0
13 *1213:A *999:20 0.000176532
14 *1213:A *999:34 0.00014504
15 *1213:A *999:47 8.05903e-05
16 *1249:A1 *1230:A2 0
17 *1249:A1 *1249:A2 0
18 *1249:A1 *263:10 0
19 *14:8 *1204:A 0
20 *14:8 *1219:B1 8.12667e-05
21 *14:8 *997:38 0
22 *14:8 *999:47 7.51291e-05
23 *14:31 *1240:A1 0
24 *14:31 *1256:B 7.99601e-05
25 *14:31 *237:14 0
26 *14:31 *996:24 0
27 *14:31 *999:47 3.23414e-05
28 *1205:A2 *1249:A1 9.83649e-05
29 *12:16 *14:8 0
*RES
1 *1859:Q_N *14:8 22.4728 
2 *14:8 *14:10 20 
3 *14:10 *1213:A 44.9544 
4 *14:10 *14:31 43.9864 
5 *14:31 *1249:A1 41.5994 
6 *14:8 *1219:A2 20 
*END

*D_NET *15 0.00619234
*CONN
*I *1465:B1 I *D sg13g2_a21o_1
*I *1490:A0 I *D sg13g2_mux2_1
*I *1472:B2 I *D sg13g2_a221oi_1
*I *1467:B I *D sg13g2_nand2b_1
*I *1919:Q_N O *D sg13g2_dfrbp_1
*CAP
1 *1465:B1 0.000448417
2 *1490:A0 0.000533622
3 *1472:B2 2.61084e-05
4 *1467:B 0.000111106
5 *1919:Q_N 0.000211083
6 *15:33 0.00063865
7 *15:29 0.000793341
8 *15:10 0.000588193
9 *1465:B1 *1463:B 7.51688e-05
10 *1465:B1 *1465:A1 0
11 *1465:B1 *492:10 4.77421e-05
12 *1465:B1 *707:61 0
13 *1465:B1 *1016:49 0.000129558
14 *1465:B1 *1016:64 0.000177614
15 *1465:B1 *1016:75 1.54007e-05
16 *1465:B1 *1018:22 0.000159286
17 *1465:B1 *1018:24 0.000181383
18 *1465:B1 *1018:28 0
19 *1465:B1 *1018:75 0
20 *1467:B *1469:A1 0.000112425
21 *1467:B *1019:55 0
22 *1472:B2 *1456:D 0
23 *1472:B2 *1472:A1 0
24 *1472:B2 *16:25 0
25 *1490:A0 *1472:A1 0
26 *1490:A0 *1472:A2 4.30888e-05
27 *1490:A0 *1489:A 7.53575e-05
28 *1490:A0 *1490:A1 0
29 *1490:A0 *1490:S 0.000287636
30 *1490:A0 *16:25 0
31 *1490:A0 *473:23 0
32 *1490:A0 *478:8 0
33 *1490:A0 *493:10 0
34 *15:10 *1469:A1 0.000144766
35 *15:10 *16:10 0.000287864
36 *15:10 *16:25 5.30323e-05
37 *15:10 *707:10 0.000287676
38 *15:10 *1019:55 0
39 *15:29 *1460:A 0
40 *15:29 *1467:A_N 0
41 *15:29 *492:10 0.000177361
42 *15:29 *707:10 0.000181422
43 *15:29 *707:25 0.000212467
44 *15:29 *1016:38 0.000144766
45 *15:29 *1016:49 4.78029e-05
46 *15:33 *473:23 0
47 *15:33 *493:10 0
*RES
1 *1919:Q_N *15:10 42.816 
2 *15:10 *1467:B 41.0054 
3 *15:10 *15:29 42.5784 
4 *15:29 *15:33 20.5104 
5 *15:33 *1472:B2 20.2728 
6 *15:33 *1490:A0 24.3736 
7 *15:29 *1465:B1 44.3428 
*END

*D_NET *16 0.00759915
*CONN
*I *1476:C I *D sg13g2_nor3_1
*I *1488:A1 I *D sg13g2_o21ai_1
*I *1461:B I *D sg13g2_nor2_1
*I *1455:B I *D sg13g2_nor2_1
*I *1921:Q_N O *D sg13g2_dfrbp_1
*CAP
1 *1476:C 0.000539511
2 *1488:A1 7.46167e-05
3 *1461:B 7.27019e-05
4 *1455:B 1.54613e-05
5 *1921:Q_N 0.000388576
6 *16:29 0.00027007
7 *16:25 0.00135661
8 *16:10 0.00109839
9 *1455:B *1456:D 0
10 *1461:B *1777:A 0
11 *1461:B *481:6 0
12 *1476:C *1466:A1 0
13 *1476:C *1496:A2 0.000259491
14 *1476:C *482:10 0.00014508
15 *1476:C *483:8 0
16 *1476:C *493:10 0
17 *1476:C *497:10 0.000241672
18 *1476:C *498:25 0.000323647
19 *1488:A1 *481:6 0
20 *1488:A1 *506:12 0
21 *16:10 *1452:B_N 0
22 *16:10 *1456:D 0
23 *16:10 *1457:A 0
24 *16:10 *709:8 7.53965e-05
25 *16:25 *1456:D 0
26 *16:25 *1460:B 0
27 *16:25 *477:10 7.53182e-05
28 *16:25 *478:27 0
29 *16:25 *481:6 0
30 *16:25 *482:10 0
31 *16:25 *493:10 0.000925386
32 *16:25 *707:10 0.00017357
33 *16:25 *707:25 0.000386623
34 *16:25 *707:53 0.000230634
35 *16:25 *707:81 0.000284591
36 *16:29 *482:10 0.000112946
37 *16:29 *498:25 0.000207963
38 *1472:B2 *16:25 0
39 *1490:A0 *16:25 0
40 *15:10 *16:10 0.000287864
41 *15:10 *16:25 5.30323e-05
*RES
1 *1921:Q_N *16:10 24.224 
2 *16:10 *1455:B 20.2728 
3 *16:10 *16:25 27.9992 
4 *16:25 *16:29 21.1968 
5 *16:29 *1461:B 20.5104 
6 *16:29 *1488:A1 20.605 
7 *16:25 *1476:C 44.9632 
*END

*D_NET *17 0.0079833
*CONN
*I *1375:A I *D sg13g2_inv_1
*I *1379:A I *D sg13g2_nor2b_1
*I *1395:A1 I *D sg13g2_a221oi_1
*I *1374:A1 I *D sg13g2_mux2_1
*I *1899:Q_N O *D sg13g2_dfrbp_1
*CAP
1 *1375:A 2.72601e-05
2 *1379:A 0
3 *1395:A1 0
4 *1374:A1 0
5 *1899:Q_N 0.00110647
6 *17:52 0.000180254
7 *17:39 3.98849e-05
8 *17:31 0.00076954
9 *17:20 0.00163098
10 *17:12 0.00128456
11 *17:8 0.0013367
12 *1375:A *1378:A1 0
13 *17:8 *1382:B1 0
14 *17:8 *1383:A 0.000127783
15 *17:8 *1399:A2 0.000194452
16 *17:8 *1399:A1 2.26492e-05
17 *17:8 *1399:B1 5.74294e-05
18 *17:8 *1773:A 8.67299e-05
19 *17:8 *1899:RESET_B 0
20 *17:8 *434:10 0
21 *17:8 *691:8 0
22 *17:8 *835:19 0
23 *17:8 *1012:14 0
24 *17:8 *1012:57 0
25 *17:8 *1014:34 0
26 *17:12 *1382:B1 0
27 *17:12 *403:12 0.000128161
28 *17:20 *1374:S 0
29 *17:20 *1405:A1 0
30 *17:20 *1418:A2 0
31 *17:20 *390:10 0
32 *17:20 *402:10 8.01443e-05
33 *17:20 *403:12 0
34 *17:20 *404:8 8.01443e-05
35 *17:20 *407:8 0
36 *17:20 *408:35 0.000112739
37 *17:20 *429:16 0
38 *17:20 *432:12 0.00030701
39 *17:20 *441:10 0.000210686
40 *17:20 *442:10 0
41 *17:31 *408:91 0
42 *17:39 *1395:B1 1.66148e-05
43 *17:39 *1395:A2 0
44 *17:39 *1396:A2 0
45 *17:39 *1396:B1 1.49483e-05
46 *17:39 *410:16 0
47 *17:52 *402:10 0
48 *17:52 *403:12 2.20968e-05
49 *17:52 *404:8 0.000146062
*RES
1 *1899:Q_N *17:8 29.8912 
2 *17:8 *17:12 1.8392 
3 *17:12 *17:20 47.6472 
4 *17:20 *1374:A1 20 
5 *17:20 *17:31 46.2128 
6 *17:31 *17:39 40.3718 
7 *17:39 *1395:A1 20 
8 *17:12 *17:52 41.7072 
9 *17:52 *1379:A 20 
10 *17:8 *1375:A 20.2728 
*END

*D_NET *18 0.000453361
*CONN
*I *1193:C I *D sg13g2_nor3_1
*I *1853:Q_N O *D sg13g2_dfrbp_1
*CAP
1 *1193:C 0.00017622
2 *1853:Q_N 0.00017622
3 *1193:C *1176:A 1.54556e-05
4 *1193:C *1193:A 0
5 *1193:C *1193:B 4.79124e-05
6 *1193:C *1521:A 1.54556e-05
7 *1193:C *226:14 2.20968e-05
*RES
1 *1853:Q_N *1193:C 41.7688 
*END

*D_NET *19 0.00300572
*CONN
*I *1434:A I *D sg13g2_and3_1
*I *1421:A1 I *D sg13g2_mux2_1
*I *1404:B I *D sg13g2_and3_1
*I *1897:Q_N O *D sg13g2_dfrbp_1
*CAP
1 *1434:A 0.000392304
2 *1421:A1 2.63173e-05
3 *1404:B 0.000175082
4 *1897:Q_N 0.000253453
5 *19:25 0.000543867
6 *19:10 0.00055378
7 *1404:B *1404:A 8.02277e-05
8 *1404:B *444:8 0
9 *1421:A1 *689:58 1.52019e-05
10 *1434:A *1431:A 0
11 *1434:A *426:46 0.000445398
12 *1434:A *426:55 0.000264538
13 *1434:A *448:16 0
14 *19:10 *1658:A 0
15 *19:10 *426:42 0
16 *19:10 *973:42 2.20968e-05
17 *19:25 *448:16 0
18 *19:25 *689:58 0.000233457
19 *19:25 *831:25 0
*RES
1 *1897:Q_N *19:10 42.1824 
2 *19:10 *1404:B 41.496 
3 *19:10 *19:25 21.144 
4 *19:25 *1421:A1 20.2728 
5 *19:25 *1434:A 23.256 
*END

*D_NET *20 0.00895142
*CONN
*I *1572:A I *D sg13g2_or2_1
*I *1622:A I *D sg13g2_nor2_1
*I *1575:A2 I *D sg13g2_a21oi_1
*I *1584:B I *D sg13g2_nor3_1
*I *1873:Q_N O *D sg13g2_dfrbp_1
*CAP
1 *1572:A 0.000186911
2 *1622:A 0.000128459
3 *1575:A2 0.00017828
4 *1584:B 0.00024527
5 *1873:Q_N 0.00040751
6 *20:52 0.000873412
7 *20:33 0.0013872
8 *20:10 0.00130366
9 *1572:A *1572:B 2.20968e-05
10 *1572:A *1599:A2 0
11 *1572:A *1622:B 0
12 *1572:A *1623:A1 0.000234604
13 *1572:A *1026:52 0
14 *1575:A2 *1349:B 4.79124e-05
15 *1575:A2 *1574:A 0
16 *1575:A2 *1575:B1 0.00027516
17 *1575:A2 *666:35 0.000112485
18 *1575:A2 *1026:73 2.46411e-05
19 *1584:B *1350:D 0.000210939
20 *1584:B *1584:C 0.000175557
21 *1584:B *99:8 0
22 *1584:B *382:18 0.000211192
23 *1584:B *667:16 7.51291e-05
24 *1622:A *1623:A2 7.24063e-05
25 *1622:A *988:59 0
26 *20:10 *1350:A 0
27 *20:10 *1354:C 0
28 *20:10 *1354:A 0
29 *20:10 *1873:CLK 0
30 *20:10 *218:10 0.000146003
31 *20:10 *382:29 0
32 *20:33 *379:12 0
33 *20:33 *379:14 0
34 *20:33 *382:6 0.000500937
35 *20:33 *382:10 0
36 *20:33 *666:35 0
37 *20:33 *668:24 0
38 *20:33 *988:94 0
39 *20:52 *1622:B 0
40 *20:52 *1623:A2 0
41 *20:52 *988:59 0
42 *20:52 *988:72 0.000766477
43 *20:52 *988:81 0
44 *20:52 *1022:6 0
45 *20:52 *1026:73 0.00136517
*RES
1 *1873:Q_N *20:10 43.7664 
2 *20:10 *1584:B 42.5608 
3 *20:10 *20:33 46.0192 
4 *20:33 *1575:A2 41.892 
5 *20:33 *20:52 46.776 
6 *20:52 *1622:A 41.2298 
7 *20:52 *1572:A 41.9448 
*END

*D_NET *21 0.0101645
*CONN
*I *1291:D I *D sg13g2_or4_1
*I *1279:B I *D sg13g2_nor2_1
*I *1325:A I *D sg13g2_and2_1
*I *1336:C I *D sg13g2_nor3_1
*I *1297:B_N I *D sg13g2_nor2b_1
*I *1294:A1 I *D sg13g2_a21o_1
*I *1881:Q_N O *D sg13g2_dfrbp_1
*CAP
1 *1291:D 0.000266274
2 *1279:B 0.000199287
3 *1325:A 6.23427e-05
4 *1336:C 0.000125626
5 *1297:B_N 0.000240612
6 *1294:A1 0
7 *1881:Q_N 0.000433852
8 *21:47 0.000493314
9 *21:45 0.00114719
10 *21:23 0.000366238
11 *21:21 0.000850513
12 *21:14 0.000173945
13 *21:8 0.000809076
14 *1279:B *1279:A 0
15 *1279:B *1280:C 7.51291e-05
16 *1279:B *1281:B1 0
17 *1279:B *1291:C 4.78029e-05
18 *1279:B *334:12 0
19 *1291:D *1280:A 0.00045169
20 *1291:D *1291:C 0
21 *1291:D *374:10 0
22 *1291:D *1009:54 0.000338416
23 *1297:B_N *1298:A1 0
24 *1297:B_N *22:41 0
25 *1297:B_N *327:10 0
26 *1297:B_N *329:10 0
27 *1297:B_N *1009:112 0.000275718
28 *1297:B_N *1009:131 0.000143199
29 *1325:A *1280:A 0
30 *1325:A *1281:B1 0
31 *1325:A *334:82 0
32 *1325:A *353:10 0
33 *1336:C *329:10 0
34 *1336:C *359:8 4.7566e-05
35 *1336:C *1006:36 0
36 *1336:C *1009:131 3.23414e-05
37 *21:8 *1767:A 0
38 *21:8 *1003:18 0
39 *21:8 *1008:40 0
40 *21:8 *1009:131 0.000234265
41 *21:14 *22:20 0
42 *21:21 *315:93 0.000181194
43 *21:21 *1009:131 0.000606019
44 *21:45 *1289:A1 0
45 *21:45 *1326:B 0
46 *21:45 *1328:A1 0
47 *21:45 *1329:B1 0
48 *21:45 *322:6 0.00044573
49 *21:45 *322:14 0.000340356
50 *21:45 *329:10 0.000341235
51 *21:45 *363:36 0.000234226
52 *21:45 *365:14 0.000977662
53 *21:47 *1280:A 0.00014364
54 *21:47 *1291:C 0
55 *21:47 *334:12 0
56 *21:47 *358:10 0
57 *21:47 *1009:54 8.00835e-05
*RES
1 *1881:Q_N *21:8 23.9512 
2 *21:8 *21:14 41.1968 
3 *21:14 *1294:A1 20 
4 *21:8 *21:21 2.6224 
5 *21:21 *21:23 20 
6 *21:23 *1297:B_N 42.3056 
7 *21:23 *1336:C 41.1968 
8 *21:21 *21:45 27.6912 
9 *21:45 *21:47 1.936 
10 *21:47 *1325:A 40.5104 
11 *21:47 *1279:B 41.7776 
12 *21:45 *1291:D 42.6752 
*END

*D_NET *22 0.00725702
*CONN
*I *1294:A2 I *D sg13g2_a21o_1
*I *1290:A_N I *D sg13g2_nand2b_1
*I *1324:A1 I *D sg13g2_o21ai_1
*I *1299:A_N I *D sg13g2_nand2b_1
*I *1286:A I *D sg13g2_inv_2
*I *1879:Q_N O *D sg13g2_dfrbp_1
*CAP
1 *1294:A2 2.49069e-05
2 *1290:A_N 0
3 *1324:A1 0
4 *1299:A_N 0
5 *1286:A 0
6 *1879:Q_N 0
7 *22:73 0.000738335
8 *22:56 6.92921e-05
9 *22:48 0.00138713
10 *22:41 4.44195e-05
11 *22:35 0.00084427
12 *22:28 5.89345e-05
13 *22:20 0.000651898
14 *22:14 0.000952736
15 *22:6 0.000555209
16 *22:14 *1331:A1 0.000240227
17 *22:14 *324:14 0.000129519
18 *22:14 *798:9 0
19 *22:20 *1331:A1 8.03968e-05
20 *22:20 *315:93 0
21 *22:20 *360:10 0
22 *22:20 *798:9 0
23 *22:20 *1006:36 0
24 *22:28 *1300:A1 2.20968e-05
25 *22:28 *798:9 0
26 *22:28 *1005:21 0
27 *22:28 *1006:23 4.67219e-05
28 *22:41 *327:10 0
29 *22:48 *350:31 0
30 *22:56 *322:29 0
31 *22:56 *358:10 0
32 *22:73 *1280:A 0.000624719
33 *22:73 *1344:B 0
34 *22:73 *305:20 0
35 *22:73 *305:32 0
36 *22:73 *305:45 4.767e-05
37 *22:73 *317:8 0
38 *22:73 *350:31 0
39 *22:73 *358:10 0.000240554
40 *22:73 *374:10 7.51291e-05
41 *22:73 *1002:65 7.81514e-05
42 *22:73 *1004:76 8.00835e-05
43 *22:73 *1007:74 0.000227067
44 *22:73 *1007:86 3.75524e-05
45 *1297:B_N *22:41 0
46 *21:14 *22:20 0
*RES
1 *1879:Q_N *22:6 40 
2 *22:6 *22:14 45.6936 
3 *22:14 *22:20 23.2912 
4 *22:20 *22:28 40.572 
5 *22:28 *1286:A 20 
6 *22:20 *22:35 2.2 
7 *22:35 *22:41 40.2728 
8 *22:41 *1299:A_N 20 
9 *22:35 *22:48 5.1568 
10 *22:48 *22:56 40.4554 
11 *22:56 *1324:A1 20 
12 *22:48 *22:73 46.3976 
13 *22:73 *1290:A_N 20 
14 *22:14 *1294:A2 40.1936 
*END

*D_NET *23 0.00228887
*CONN
*I *1312:A0 I *D sg13g2_mux2_1
*I *1320:A I *D sg13g2_inv_1
*I *1877:Q_N O *D sg13g2_dfrbp_1
*CAP
1 *1312:A0 0.000381997
2 *1320:A 0.000160331
3 *1877:Q_N 9.64345e-05
4 *23:10 0.000638763
5 *1312:A0 *1312:A1 7.51688e-05
6 *1312:A0 *1312:S 7.51688e-05
7 *1312:A0 *349:10 0
8 *1312:A0 *673:10 0
9 *1312:A0 *673:25 0
10 *1320:A *1311:B 0.000498389
11 *1320:A *1313:B 0.000287447
12 *1320:A *1314:C1 0
13 *23:10 *1311:B 7.51684e-05
14 *23:10 *339:10 0
15 *23:10 *339:14 0
*RES
1 *1877:Q_N *23:10 40.968 
2 *23:10 *1320:A 42.2616 
3 *23:10 *1312:A0 43.8984 
*END

*D_NET *24 0.00238837
*CONN
*I *1843:D I *D sg13g2_dfrbp_1
*I *1526:Y O *D sg13g2_a21oi_1
*CAP
1 *1843:D 0.000384565
2 *1526:Y 0.000150078
3 *24:8 0.000534643
4 *1843:D *1843:CLK 0.000767042
5 *1843:D *982:43 0.000341046
6 *24:8 *982:24 0
7 *24:8 *993:26 0.000210999
*RES
1 *1526:Y *24:8 41.5664 
2 *24:8 *1843:D 45.1568 
*END

*D_NET *25 0.000668545
*CONN
*I *1844:D I *D sg13g2_dfrbp_1
*I *1528:Y O *D sg13g2_a21oi_1
*CAP
1 *1844:D 4.42882e-05
2 *1528:Y 0.000136761
3 *25:10 0.000181049
4 *1844:D *982:43 0.000128161
5 *25:10 *1528:B1 0
6 *25:10 *215:14 0
7 *25:10 *982:43 0
8 *25:10 *993:16 0.000178284
*RES
1 *1528:Y *25:10 41.3112 
2 *25:10 *1844:D 40.5104 
*END

*D_NET *26 0.000910686
*CONN
*I *1845:D I *D sg13g2_dfrbp_1
*I *1531:X O *D sg13g2_and2_1
*CAP
1 *1845:D 0.000153967
2 *1531:X 9.62045e-05
3 *26:8 0.000250172
4 *1845:D *1853:CLK 0
5 *1845:D *980:10 7.508e-05
6 *1845:D *984:31 0.000335263
*RES
1 *1531:X *26:8 40.8272 
2 *26:8 *1845:D 41.628 
*END

*D_NET *27 0.000436857
*CONN
*I *1846:D I *D sg13g2_dfrbp_1
*I *1534:X O *D sg13g2_and2_1
*CAP
1 *1846:D 0.000218429
2 *1534:X 0.000218429
3 *1846:D *1535:B 0
4 *1846:D *231:12 0
5 *1846:D *652:10 0
6 *1846:D *653:16 0
*RES
1 *1534:X *1846:D 41.8392 
*END

*D_NET *28 0.00190294
*CONN
*I *1847:D I *D sg13g2_dfrbp_1
*I *1536:X O *D sg13g2_and3_1
*CAP
1 *1847:D 0
2 *1536:X 0.000552284
3 *28:10 0.000552284
4 *28:10 *546:10 0
5 *28:10 *548:10 0.000798373
6 *28:10 *653:25 0
*RES
1 *1536:X *28:10 44.8224 
2 *28:10 *1847:D 40 
*END

*D_NET *29 0.000252131
*CONN
*I *1848:D I *D sg13g2_dfrbp_1
*I *1265:Y O *D sg13g2_o21ai_1
*CAP
1 *1848:D 8.84815e-05
2 *1265:Y 8.84815e-05
3 *1848:D *1264:A 0
4 *1848:D *1264:B 0
5 *1848:D *1265:B1 7.51684e-05
*RES
1 *1265:Y *1848:D 40.9328 
*END

*D_NET *30 0.000101364
*CONN
*I *1849:D I *D sg13g2_dfrbp_1
*I *1267:Y O *D sg13g2_o21ai_1
*CAP
1 *1849:D 5.0682e-05
2 *1267:Y 5.0682e-05
3 *1849:D *1267:B1 0
*RES
1 *1267:Y *1849:D 40.5104 
*END

*D_NET *31 0.000153427
*CONN
*I *1850:D I *D sg13g2_dfrbp_1
*I *1268:X O *D sg13g2_mux2_1
*CAP
1 *1850:D 7.67136e-05
2 *1268:X 7.67136e-05
3 *1850:D *1264:A 0
4 *1850:D *1268:A1 0
*RES
1 *1268:X *1850:D 40.7832 
*END

*D_NET *32 0.000295166
*CONN
*I *1851:D I *D sg13g2_dfrbp_1
*I *1270:Y O *D sg13g2_o21ai_1
*CAP
1 *1851:D 0
2 *1270:Y 0.000147583
3 *32:8 0.000147583
4 *32:8 *232:37 0
5 *32:8 *981:41 0
*RES
1 *1270:Y *32:8 41.5664 
2 *32:8 *1851:D 40 
*END

*D_NET *33 0.000260796
*CONN
*I *1854:D I *D sg13g2_dfrbp_1
*I *1545:Y O *D sg13g2_a21oi_1
*CAP
1 *1854:D 0.000130398
2 *1545:Y 0.000130398
3 *1854:D *1545:A1 0
*RES
1 *1545:Y *1854:D 41.1968 
*END

*D_NET *34 0.000904273
*CONN
*I *1855:D I *D sg13g2_dfrbp_1
*I *1548:Y O *D sg13g2_a21oi_1
*CAP
1 *1855:D 0.000452137
2 *1548:Y 0.000452137
3 *1855:D *1855:CLK 0
4 *1855:D *1074:10 0
*RES
1 *1548:Y *1855:D 44.4528 
*END

*D_NET *35 0.00163584
*CONN
*I *1856:D I *D sg13g2_dfrbp_1
*I *1551:Y O *D sg13g2_a21oi_1
*CAP
1 *1856:D 0.000118467
2 *1551:Y 0.000378071
3 *35:10 0.000496538
4 *1856:D *983:33 0.000128389
5 *35:10 *1549:B 0
6 *35:10 *1551:A1 0.000288053
7 *35:10 *759:9 0
8 *35:10 *994:55 8.14947e-05
9 *35:10 *1073:10 0.000144827
*RES
1 *1551:Y *35:10 44.3736 
2 *35:10 *1856:D 41.3552 
*END

*D_NET *36 0.000372072
*CONN
*I *1857:D I *D sg13g2_dfrbp_1
*I *1554:Y O *D sg13g2_a21oi_1
*CAP
1 *1857:D 0.000186036
2 *1554:Y 0.000186036
3 *1857:D *1554:B1 0
4 *1857:D *242:12 0
5 *1857:D *1021:8 0
*RES
1 *1554:Y *1857:D 41.6896 
*END

*D_NET *37 0.000620311
*CONN
*I *1858:D I *D sg13g2_dfrbp_1
*I *1558:Y O *D sg13g2_a21oi_1
*CAP
1 *1858:D 5.91411e-05
2 *1558:Y 0.000146799
3 *37:10 0.000205941
4 *1858:D *1071:14 0
5 *37:10 *1551:A2 0
6 *37:10 *1557:C 0
7 *37:10 *1558:A1 0.000128285
8 *37:10 *1558:B1 0
9 *37:10 *1071:14 8.01443e-05
*RES
1 *1558:Y *37:10 41.5224 
2 *37:10 *1858:D 40.5104 
*END

*D_NET *38 0.000733556
*CONN
*I *1859:D I *D sg13g2_dfrbp_1
*I *1561:Y O *D sg13g2_a21oi_1
*CAP
1 *1859:D 2.50584e-05
2 *1561:Y 0.000304021
3 *38:8 0.00032908
4 *1859:D *1859:CLK 7.53965e-05
5 *38:8 *1859:CLK 0
6 *38:8 *983:51 0
7 *38:8 *1070:10 0
*RES
1 *1561:Y *38:8 43.0448 
2 *38:8 *1859:D 40.2992 
*END

*D_NET *39 0.000669601
*CONN
*I *1860:D I *D sg13g2_dfrbp_1
*I *1566:Y O *D sg13g2_a21oi_1
*CAP
1 *1860:D 0.000150872
2 *1566:Y 0.000150872
3 *1860:D *1566:A1 0
4 *1860:D *1566:A2 8.03692e-05
5 *1860:D *994:14 0
6 *1860:D *1029:30 0.000287487
*RES
1 *1566:Y *1860:D 41.6016 
*END

*D_NET *40 0.00159202
*CONN
*I *1861:D I *D sg13g2_dfrbp_1
*I *1569:Y O *D sg13g2_a21oi_1
*CAP
1 *1861:D 0.000106687
2 *1569:Y 0.00027581
3 *40:8 0.000382498
4 *1861:D *1070:10 0.000340896
5 *40:8 *1560:B 0
6 *40:8 *1561:B1 0.000275384
7 *40:8 *983:51 0
8 *40:8 *1070:10 0.000210746
*RES
1 *1569:Y *40:8 42.6752 
2 *40:8 *1861:D 41.3552 
*END

*D_NET *41 0.000355873
*CONN
*I *1862:D I *D sg13g2_dfrbp_1
*I *1571:Y O *D sg13g2_o21ai_1
*CAP
1 *1862:D 0
2 *1571:Y 0.000140542
3 *41:10 0.000140542
4 *41:10 *1571:A1 7.47893e-05
5 *41:10 *1862:CLK 0
6 *41:10 *984:16 0
7 *41:10 *984:18 0
8 *41:10 *1102:8 0
*RES
1 *1571:Y *41:10 41.3112 
2 *41:10 *1862:D 40 
*END

*D_NET *42 0.00170298
*CONN
*I *1863:D I *D sg13g2_dfrbp_1
*I *1576:Y O *D sg13g2_a21oi_1
*CAP
1 *1863:D 0.000435096
2 *1576:Y 0.000343622
3 *42:8 0.000778719
4 *1863:D *1863:CLK 0
5 *42:8 *1575:B1 0
6 *42:8 *577:10 0
7 *42:8 *666:16 0.000145541
8 *42:8 *1103:8 0
*RES
1 *1576:Y *42:8 43.4144 
2 *42:8 *1863:D 44.3472 
*END

*D_NET *43 0.000942771
*CONN
*I *1864:D I *D sg13g2_dfrbp_1
*I *1579:Y O *D sg13g2_a21oi_1
*CAP
1 *1864:D 0.00043386
2 *1579:Y 0.00043386
3 *1864:D *1624:B 7.50503e-05
4 *1864:D *1863:CLK 0
5 *1864:D *198:49 0
*RES
1 *1579:Y *1864:D 43.4848 
*END

*D_NET *44 0.000900201
*CONN
*I *1865:D I *D sg13g2_dfrbp_1
*I *1582:X O *D sg13g2_and2_1
*CAP
1 *1865:D 0.000226277
2 *1582:X 0.000107095
3 *44:8 0.000333372
4 *1865:D *1865:CLK 0.000233457
5 *1865:D *378:20 0
6 *44:8 *382:55 0
*RES
1 *1582:X *44:8 41.012 
2 *44:8 *1865:D 42.4112 
*END

*D_NET *45 0.0010958
*CONN
*I *1866:D I *D sg13g2_dfrbp_1
*I *1586:X O *D sg13g2_and2_1
*CAP
1 *1866:D 0.000328704
2 *1586:X 0.000328704
3 *1866:D *1586:A 0
4 *1866:D *1866:CLK 0
5 *1866:D *100:10 0.000234832
6 *1866:D *668:12 7.51688e-05
7 *1866:D *668:14 0.000128389
*RES
1 *1586:X *1866:D 43.5728 
*END

*D_NET *46 0.000199531
*CONN
*I *1867:D I *D sg13g2_dfrbp_1
*I *1588:X O *D sg13g2_and3_1
*CAP
1 *1867:D 9.97653e-05
2 *1588:X 9.97653e-05
3 *1867:D *1588:C 0
4 *1867:D *669:16 0
*RES
1 *1588:X *1867:D 40.7832 
*END

*D_NET *47 0.000222286
*CONN
*I *1868:D I *D sg13g2_dfrbp_1
*I *1356:X O *D sg13g2_mux2_1
*CAP
1 *1868:D 8.71869e-05
2 *1356:X 8.71869e-05
3 *1868:D *1356:A1 4.79124e-05
4 *1868:D *1356:S 0
5 *1868:D *186:63 0
*RES
1 *1356:X *1868:D 40.7832 
*END

*D_NET *48 0.000257304
*CONN
*I *1869:D I *D sg13g2_dfrbp_1
*I *1357:X O *D sg13g2_mux2_1
*CAP
1 *1869:D 6.43434e-05
2 *1357:X 6.43434e-05
3 *1869:D *1357:A1 0.000128618
4 *1869:D *1869:CLK 0
*RES
1 *1357:X *1869:D 40.7832 
*END

*D_NET *49 9.82254e-05
*CONN
*I *1870:D I *D sg13g2_dfrbp_1
*I *1360:Y O *D sg13g2_o21ai_1
*CAP
1 *1870:D 4.91127e-05
2 *1360:Y 4.91127e-05
3 *1870:D *1356:S 0
4 *1870:D *1359:A 0
5 *1870:D *186:50 0
6 *1870:D *383:42 0
*RES
1 *1360:Y *1870:D 40.5104 
*END

*D_NET *50 0.00143521
*CONN
*I *1871:D I *D sg13g2_dfrbp_1
*I *1362:Y O *D sg13g2_o21ai_1
*CAP
1 *1871:D 0
2 *1362:Y 0.000253296
3 *50:10 0.000253296
4 *50:10 *1357:S 0
5 *50:10 *1361:B 7.53965e-05
6 *50:10 *1362:B1 0
7 *50:10 *334:65 0.000394495
8 *50:10 *344:33 0
9 *50:10 *376:10 0.000276924
10 *50:10 *912:18 0.000181799
*RES
1 *1362:Y *50:10 43.1328 
2 *50:10 *1871:D 40 
*END

*D_NET *51 0.00200301
*CONN
*I *1874:D I *D sg13g2_dfrbp_1
*I *1596:Y O *D sg13g2_a21oi_1
*CAP
1 *1874:D 0.000186488
2 *1596:Y 0.000243009
3 *51:10 0.000429497
4 *1874:D *1874:CLK 0.000181233
5 *1874:D *183:22 0.000159097
6 *1874:D *671:8 0.000341046
7 *51:10 *379:14 0
8 *51:10 *1030:14 8.00835e-05
9 *51:10 *1030:42 0
10 *51:10 *1114:10 0.000382555
*RES
1 *1596:Y *51:10 42.2352 
2 *51:10 *1874:D 42.2 
*END

*D_NET *52 0.000531282
*CONN
*I *1875:D I *D sg13g2_dfrbp_1
*I *1599:Y O *D sg13g2_a21oi_1
*CAP
1 *1875:D 0
2 *1599:Y 0.000137365
3 *52:10 0.000137365
4 *52:10 *1599:A1 0.000128161
5 *52:10 *380:10 0
6 *52:10 *984:166 0.000128389
7 *52:10 *987:25 0
*RES
1 *1599:Y *52:10 41.5224 
2 *52:10 *1875:D 40 
*END

*D_NET *53 0.000466219
*CONN
*I *1876:D I *D sg13g2_dfrbp_1
*I *1602:Y O *D sg13g2_a21oi_1
*CAP
1 *1876:D 0.000168915
2 *1602:Y 0.000168915
3 *1876:D *1602:A1 0.000128389
4 *1876:D *1602:A2 0
5 *1876:D *1026:22 0
6 *1876:D *1026:138 0
7 *1876:D *1030:91 0
*RES
1 *1602:Y *1876:D 41.6896 
*END

*D_NET *54 0.000365488
*CONN
*I *1877:D I *D sg13g2_dfrbp_1
*I *1606:Y O *D sg13g2_a21oi_1
*CAP
1 *1877:D 0
2 *1606:Y 0.000182744
3 *54:10 0.000182744
4 *54:10 *113:10 0
5 *54:10 *183:22 0
6 *54:10 *670:10 0
*RES
1 *1606:Y *54:10 41.496 
2 *54:10 *1877:D 40 
*END

*D_NET *55 0.00163805
*CONN
*I *1878:D I *D sg13g2_dfrbp_1
*I *1609:Y O *D sg13g2_a21oi_1
*CAP
1 *1878:D 3.36557e-05
2 *1609:Y 0.000546246
3 *55:10 0.000579902
4 *55:10 *1607:B 0.000234832
5 *55:10 *380:10 0.000243414
*RES
1 *1609:Y *55:10 45.4824 
2 *55:10 *1878:D 40.2992 
*END

*D_NET *56 0.00336154
*CONN
*I *1879:D I *D sg13g2_dfrbp_1
*I *1613:Y O *D sg13g2_a21oi_1
*CAP
1 *1879:D 0.000177714
2 *1613:Y 0.000827069
3 *56:8 0.00100478
4 *56:8 *1879:CLK 0
5 *56:8 *124:12 0
6 *56:8 *192:43 0
7 *56:8 *794:15 0.00135197
*RES
1 *1613:Y *56:8 47.6648 
2 *56:8 *1879:D 41.5664 
*END

*D_NET *57 0.00134181
*CONN
*I *1880:D I *D sg13g2_dfrbp_1
*I *1617:Y O *D sg13g2_a21oi_1
*CAP
1 *1880:D 0
2 *1617:Y 0.000267424
3 *57:10 0.000267424
4 *57:10 results[111] 0.000208975
5 *57:10 *1615:B 0.000128097
6 *57:10 *1617:A1 0.00018019
7 *57:10 *1617:B1 8.07262e-05
8 *57:10 *124:12 0
9 *57:10 *793:9 0.000208975
*RES
1 *1617:Y *57:10 42.7632 
2 *57:10 *1880:D 40 
*END

*D_NET *58 0.000372023
*CONN
*I *1881:D I *D sg13g2_dfrbp_1
*I *1620:Y O *D sg13g2_a21oi_1
*CAP
1 *1881:D 0.000186011
2 *1620:Y 0.000186011
3 *1881:D *1049:8 0
*RES
1 *1620:Y *1881:D 41.6104 
*END

*D_NET *59 0.00164338
*CONN
*I *1882:D I *D sg13g2_dfrbp_1
*I *1624:Y O *D sg13g2_nor2_1
*CAP
1 *1882:D 0.00081396
2 *1624:Y 0.00081396
3 *1882:D *1728:A 0
4 *1882:D *1863:CLK 0
5 *1882:D *1872:CLK 1.54556e-05
6 *1882:D *198:10 0
7 *1882:D *198:12 0
8 *1882:D *198:49 0
9 *1882:D *712:29 0
*RES
1 *1624:Y *1882:D 46.5208 
*END

*D_NET *60 0.00154368
*CONN
*I *1883:D I *D sg13g2_dfrbp_1
*I *1629:Y O *D sg13g2_a21oi_1
*CAP
1 *1883:D 0.000197759
2 *1629:Y 0.000206969
3 *60:8 0.000404728
4 *1883:D *209:12 0.000393551
5 *1883:D *682:8 0
6 *1883:D *974:27 0
7 *1883:D *991:71 0.000340669
8 *60:8 *131:27 0
9 *60:8 *991:24 0
*RES
1 *1629:Y *60:8 41.7512 
2 *60:8 *1883:D 42.4728 
*END

*D_NET *61 0.00111641
*CONN
*I *1884:D I *D sg13g2_dfrbp_1
*I *1631:Y O *D sg13g2_a21oi_1
*CAP
1 *1884:D 0.000558206
2 *1631:Y 0.000558206
3 *1884:D *1170:B 0
4 *1884:D *1437:B 0
5 *1884:D *1631:A2 0
6 *1884:D *209:12 0
7 *1884:D *682:8 0
8 *1884:D *974:27 0
*RES
1 *1631:Y *1884:D 45.456 
*END

*D_NET *62 0.000714322
*CONN
*I *1885:D I *D sg13g2_dfrbp_1
*I *1634:X O *D sg13g2_and2_1
*CAP
1 *1885:D 7.84296e-05
2 *1634:X 0.000114634
3 *62:10 0.000193064
4 *1885:D *466:25 0
5 *62:10 *1634:B 7.51684e-05
6 *62:10 *1675:A1 0
7 *62:10 *466:25 7.51291e-05
8 *62:10 *972:22 0.000177897
9 *62:10 *1033:10 0
*RES
1 *1634:X *62:10 41.3112 
2 *62:10 *1885:D 40.7216 
*END

*D_NET *63 0.000716214
*CONN
*I *1886:D I *D sg13g2_dfrbp_1
*I *1638:X O *D sg13g2_and2_1
*CAP
1 *1886:D 0.000176705
2 *1638:X 0.000176705
3 *1886:D *1640:C 0
4 *1886:D *1886:CLK 0.000181383
5 *1886:D *684:10 0
6 *1886:D *685:18 0.000181422
*RES
1 *1638:X *1886:D 42.0328 
*END

*D_NET *64 0.000244809
*CONN
*I *1887:D I *D sg13g2_dfrbp_1
*I *1640:X O *D sg13g2_and3_1
*CAP
1 *1887:D 0.000122405
2 *1640:X 0.000122405
3 *1887:D *685:30 0
*RES
1 *1640:X *1887:D 41.1968 
*END

*D_NET *65 0.00026107
*CONN
*I *1888:D I *D sg13g2_dfrbp_1
*I *1444:X O *D sg13g2_mux2_1
*CAP
1 *1888:D 6.67442e-05
2 *1444:X 6.67442e-05
3 *1888:D *1444:A1 0.000127582
*RES
1 *1444:X *1888:D 40.7832 
*END

*D_NET *66 0.000396631
*CONN
*I *1889:D I *D sg13g2_dfrbp_1
*I *1446:Y O *D sg13g2_o21ai_1
*CAP
1 *1889:D 0.000198316
2 *1446:Y 0.000198316
3 *1889:D *1889:RESET_B 0
4 *1889:D *467:20 0
5 *1889:D *467:35 0
*RES
1 *1446:Y *1889:D 41.8656 
*END

*D_NET *67 0.000380569
*CONN
*I *1890:D I *D sg13g2_dfrbp_1
*I *1448:Y O *D sg13g2_o21ai_1
*CAP
1 *1890:D 0.000190285
2 *1448:Y 0.000190285
3 *1890:D *1448:B1 0
4 *1890:D *1890:CLK 0
*RES
1 *1448:Y *1890:D 41.8656 
*END

*D_NET *68 0.000161323
*CONN
*I *1891:D I *D sg13g2_dfrbp_1
*I *1449:X O *D sg13g2_mux2_1
*CAP
1 *1891:D 8.06617e-05
2 *1449:X 8.06617e-05
3 *1891:D *1444:A1 0
4 *1891:D *1449:A1 0
5 *1891:D *1449:S 0
*RES
1 *1449:X *1891:D 40.7832 
*END

*D_NET *69 0.00129979
*CONN
*I *1894:D I *D sg13g2_dfrbp_1
*I *1648:Y O *D sg13g2_a21oi_1
*CAP
1 *1894:D 0
2 *1648:Y 0.000348344
3 *69:10 0.000348344
4 *69:10 *1571:A2 0.000603097
5 *69:10 *1894:RESET_B 0
6 *69:10 *827:13 0
7 *69:10 *991:28 0
*RES
1 *1648:Y *69:10 43.8192 
2 *69:10 *1894:D 40 
*END

*D_NET *70 0.00134822
*CONN
*I *1895:D I *D sg13g2_dfrbp_1
*I *1651:Y O *D sg13g2_a21oi_1
*CAP
1 *1895:D 0.000427866
2 *1651:Y 0.000155531
3 *70:8 0.000583397
4 *1895:D *1894:RESET_B 0
5 *1895:D *1895:CLK 0.000181422
6 *1895:D *828:13 0
7 *1895:D *992:101 0
8 *70:8 *992:82 0
9 *70:8 *1027:14 0
*RES
1 *1651:Y *70:8 41.5664 
2 *70:8 *1895:D 44.312 
*END

*D_NET *71 0.000351066
*CONN
*I *1896:D I *D sg13g2_dfrbp_1
*I *1655:Y O *D sg13g2_a21oi_1
*CAP
1 *1896:D 7.35651e-05
2 *1655:Y 7.35651e-05
3 *1896:D *1419:A 2.21365e-05
4 *1896:D *1655:A1 0.000181799
5 *1896:D *150:10 0
*RES
1 *1655:Y *1896:D 40.9328 
*END

*D_NET *72 0.000922547
*CONN
*I *1897:D I *D sg13g2_dfrbp_1
*I *1659:Y O *D sg13g2_a21oi_1
*CAP
1 *1897:D 0.000307726
2 *1659:Y 0.000307726
3 *1897:D *1656:A 0
4 *1897:D *1659:A1 0.000283031
5 *1897:D *1659:B1 2.40633e-05
*RES
1 *1659:Y *1897:D 42.7192 
*END

*D_NET *73 0.000723977
*CONN
*I *1898:D I *D sg13g2_dfrbp_1
*I *1662:Y O *D sg13g2_a21oi_1
*CAP
1 *1898:D 5.27862e-05
2 *1662:Y 0.000158446
3 *73:10 0.000211232
4 *1898:D *832:25 0
5 *1898:D *1055:10 7.51291e-05
6 *73:10 *1662:B1 8.08277e-05
7 *73:10 *1027:16 0
8 *73:10 *1027:48 0
9 *73:10 *1055:10 0.000145556
*RES
1 *1662:Y *73:10 41.5224 
2 *73:10 *1898:D 40.5104 
*END

*D_NET *74 0.000498882
*CONN
*I *1899:D I *D sg13g2_dfrbp_1
*I *1665:Y O *D sg13g2_a21oi_1
*CAP
1 *1899:D 0.000211857
2 *1665:Y 0.000211857
3 *1899:D *1665:A1 0
4 *1899:D *1899:CLK 7.51688e-05
*RES
1 *1665:Y *1899:D 41.9448 
*END

*D_NET *75 0.00150045
*CONN
*I *1900:D I *D sg13g2_dfrbp_1
*I *1669:Y O *D sg13g2_a21oi_1
*CAP
1 *1900:D 0
2 *1669:Y 0.000410498
3 *75:12 0.000410498
4 *75:12 *1667:A 0
5 *75:12 *1669:A1 0.000273257
6 *75:12 *1669:B1 0
7 *75:12 *828:13 0.000406193
8 *75:12 *1027:58 0
*RES
1 *1669:Y *75:12 44.2504 
2 *75:12 *1900:D 40 
*END

*D_NET *76 0.0023031
*CONN
*I *1901:D I *D sg13g2_dfrbp_1
*I *1672:Y O *D sg13g2_a21oi_1
*CAP
1 *1901:D 0
2 *1672:Y 0.000604446
3 *76:10 0.000604446
4 *76:10 *1672:A1 0
5 *76:10 *1672:A2 0.000128389
6 *76:10 *1901:CLK 0
7 *76:10 *832:13 0.000731216
8 *76:10 *975:26 0.000234604
*RES
1 *1672:Y *76:10 45.6408 
2 *76:10 *1901:D 40 
*END

*D_NET *77 0.00105445
*CONN
*I *1902:D I *D sg13g2_dfrbp_1
*I *1676:Y O *D sg13g2_nor2_1
*CAP
1 *1902:D 0.000203494
2 *1676:Y 0.000259613
3 *77:8 0.000463107
4 *1902:D *198:38 0.00012824
5 *1902:D *1142:10 0
6 *77:8 *984:10 0
7 *77:8 *1142:10 0
*RES
1 *1676:Y *77:8 42.6752 
2 *77:8 *1902:D 41.9888 
*END

*D_NET *78 0.00234104
*CONN
*I *1903:D I *D sg13g2_dfrbp_1
*I *1684:Y O *D sg13g2_a21oi_1
*CAP
1 *1903:D 0.000562213
2 *1684:Y 0.000608307
3 *78:8 0.00117052
4 *1903:D *979:22 0
5 *1903:D *979:33 0
6 *1903:D *979:48 0
7 *1903:D *1144:8 0
8 *78:8 *1686:A1 0
9 *78:8 *1904:D 0
10 *78:8 *990:60 0
*RES
1 *1684:Y *78:8 45.7904 
2 *78:8 *1903:D 45.4032 
*END

*D_NET *79 0.00127225
*CONN
*I *1904:D I *D sg13g2_dfrbp_1
*I *1686:Y O *D sg13g2_a21oi_1
*CAP
1 *1904:D 0.000481261
2 *1686:Y 0.000481261
3 *1904:D *1686:B1 0
4 *1904:D *1904:CLK 0.000128161
5 *1904:D *979:48 0.000181572
6 *78:8 *1904:D 0
*RES
1 *1686:Y *1904:D 44.9896 
*END

*D_NET *80 0.000827624
*CONN
*I *1905:D I *D sg13g2_dfrbp_1
*I *1690:Y O *D sg13g2_nor2_1
*CAP
1 *1905:D 0.000413812
2 *1690:Y 0.000413812
3 *1905:D *1690:A 0
4 *1905:D *1690:B 0
5 *1905:D *530:8 0
6 *1905:D *979:10 0
7 *1905:D *979:22 0
*RES
1 *1690:Y *1905:D 44.2064 
*END

*D_NET *81 0.000521708
*CONN
*I *1906:D I *D sg13g2_dfrbp_1
*I *1693:Y O *D sg13g2_nor2_1
*CAP
1 *1906:D 0.000217449
2 *1693:Y 0.000217449
3 *1906:D *1749:A 8.68109e-05
4 *1906:D *532:12 0
*RES
1 *1693:Y *1906:D 42.1296 
*END

*D_NET *82 0.00223847
*CONN
*I *1907:D I *D sg13g2_dfrbp_1
*I *1694:Y O *D sg13g2_nor3_1
*CAP
1 *1907:D 0.000230439
2 *1694:Y 0.000203866
3 *82:8 0.000434305
4 *1907:D *1513:D 0.000711061
5 *1907:D *1694:C 0
6 *1907:D *1922:CLK 0.000658804
7 *1907:D *701:10 0
8 *82:8 *1513:D 0
9 *82:8 *533:10 0
*RES
1 *1694:Y *82:8 41.7512 
2 *82:8 *1907:D 43.4672 
*END

*D_NET *83 0.0010976
*CONN
*I *1908:D I *D sg13g2_dfrbp_1
*I *1515:X O *D sg13g2_mux2_1
*CAP
1 *1908:D 0
2 *1515:X 0.000321011
3 *83:10 0.000321011
4 *83:10 *1515:A1 0
5 *83:10 *1519:A 0
6 *83:10 *1908:CLK 0.000210538
7 *83:10 *976:49 0.000245037
*RES
1 *1515:X *83:10 43.1856 
2 *83:10 *1908:D 40 
*END

*D_NET *84 0.000289867
*CONN
*I *1909:D I *D sg13g2_dfrbp_1
*I *1517:Y O *D sg13g2_o21ai_1
*CAP
1 *1909:D 0
2 *1517:Y 0.000144934
3 *84:8 0.000144934
4 *84:8 *498:45 0
5 *84:8 *534:29 0
6 *84:8 *976:19 0
*RES
1 *1517:Y *84:8 41.5664 
2 *84:8 *1909:D 40 
*END

*D_NET *85 0.000291278
*CONN
*I *1910:D I *D sg13g2_dfrbp_1
*I *1518:X O *D sg13g2_mux2_1
*CAP
1 *1910:D 0.000121246
2 *1518:X 0.000121246
3 *1910:D *1516:A 0
4 *1910:D *1517:B1 0
5 *1910:D *1518:A1 4.8786e-05
*RES
1 *1518:X *1910:D 41.2056 
*END

*D_NET *86 0.00064379
*CONN
*I *1911:D I *D sg13g2_dfrbp_1
*I *1520:Y O *D sg13g2_o21ai_1
*CAP
1 *1911:D 0.000205166
2 *1520:Y 0.000205166
3 *1911:D *1506:B1 0.000233457
4 *1911:D *1519:A 0
5 *1911:D *1520:B1 0
6 *1911:D *976:42 0
*RES
1 *1520:Y *1911:D 42.156 
*END

*D_NET *87 0.00169194
*CONN
*I *1914:D I *D sg13g2_dfrbp_1
*I *1702:Y O *D sg13g2_a21oi_1
*CAP
1 *1914:D 0.000257548
2 *1702:Y 0.000178542
3 *87:8 0.000436091
4 *1914:D *1699:B 0
5 *1914:D *1839:A 0.000819762
6 *1914:D *1083:10 0
7 *87:8 *1083:10 0
8 *87:8 *1154:8 0
*RES
1 *1702:Y *87:8 41.5664 
2 *87:8 *1914:D 43.256 
*END

*D_NET *88 0.00191961
*CONN
*I *1915:D I *D sg13g2_dfrbp_1
*I *1705:Y O *D sg13g2_a21oi_1
*CAP
1 *1915:D 9.3806e-05
2 *1705:Y 0.000278154
3 *88:10 0.00037196
4 *1915:D *743:17 0
5 *1915:D *1082:14 0
6 *88:10 *1706:A 0.000550744
7 *88:10 *740:13 0.000544546
8 *88:10 *1082:14 0
9 *88:10 *1155:8 8.03974e-05
*RES
1 *1705:Y *88:10 43.7664 
2 *88:10 *1915:D 40.7216 
*END

*D_NET *89 0.00128227
*CONN
*I *1916:D I *D sg13g2_dfrbp_1
*I *1708:Y O *D sg13g2_a21oi_1
*CAP
1 *1916:D 0.000240408
2 *1708:Y 0.000156152
3 *89:10 0.00039656
4 *1916:D *1916:CLK 0.000391986
5 *1916:D *1028:96 0
6 *89:10 *1708:A1 7.50649e-05
7 *89:10 *1708:B1 2.20968e-05
8 *89:10 *741:21 0
9 *89:10 *978:39 0
*RES
1 *1708:Y *89:10 41.496 
2 *89:10 *1916:D 42.4112 
*END

*D_NET *90 0.000871146
*CONN
*I *1917:D I *D sg13g2_dfrbp_1
*I *1712:Y O *D sg13g2_a21oi_1
*CAP
1 *1917:D 0.00019835
2 *1712:Y 0.00019835
3 *1917:D *1711:A 0.000145151
4 *1917:D *1712:A1 0
5 *1917:D *1712:A2 0
6 *1917:D *479:14 0
7 *1917:D *705:10 0
8 *1917:D *989:42 0.000287864
9 *1917:D *1024:118 4.14315e-05
10 *1917:D *1032:85 0
*RES
1 *1712:Y *1917:D 42.3496 
*END

*D_NET *91 0.000778176
*CONN
*I *1918:D I *D sg13g2_dfrbp_1
*I *1715:Y O *D sg13g2_a21oi_1
*CAP
1 *1918:D 2.7362e-05
2 *1715:Y 0.000202551
3 *91:10 0.000229913
4 *1918:D *1918:CLK 5.30323e-05
5 *1918:D *978:20 2.20968e-05
6 *91:10 *1715:A1 0
7 *91:10 *1724:C 0
8 *91:10 *168:23 0
9 *91:10 *978:8 0.000243221
*RES
1 *1715:Y *91:10 41.6808 
2 *91:10 *1918:D 40.2992 
*END

*D_NET *92 0.0016403
*CONN
*I *1919:D I *D sg13g2_dfrbp_1
*I *1718:Y O *D sg13g2_a21oi_1
*CAP
1 *1919:D 0.000209046
2 *1718:Y 0.000514205
3 *92:12 0.000723251
4 *1919:D *1919:CLK 0
5 *1919:D *978:54 0
6 *92:12 *1718:B1 1.54556e-05
7 *92:12 *1725:A2 0
8 *92:12 *94:10 0
9 *92:12 *989:50 0
10 *92:12 *1159:10 0.000178344
*RES
1 *1718:Y *92:12 45.28 
2 *92:12 *1919:D 42.024 
*END

*D_NET *93 0.000365242
*CONN
*I *1920:D I *D sg13g2_dfrbp_1
*I *1722:Y O *D sg13g2_a21oi_1
*CAP
1 *1920:D 0.000182621
2 *1722:Y 0.000182621
3 *1920:D *1678:A2 0
4 *1920:D *1721:A 0
5 *1920:D *1722:A1 0
6 *1920:D *200:10 0
7 *1920:D *1024:118 0
*RES
1 *1722:Y *1920:D 41.6896 
*END

*D_NET *94 0.00122612
*CONN
*I *1921:D I *D sg13g2_dfrbp_1
*I *1725:Y O *D sg13g2_a21oi_1
*CAP
1 *1921:D 0
2 *1725:Y 0.00061306
3 *94:10 0.00061306
4 *94:10 *1725:B1 0
5 *94:10 *978:54 0
6 *94:10 *978:60 0
7 *94:10 *1028:96 0
8 *94:10 *1159:10 0
9 *92:12 *94:10 0
*RES
1 *1725:Y *94:10 46.512 
2 *94:10 *1921:D 40 
*END

*D_NET *95 0.00124979
*CONN
*I *1922:D I *D sg13g2_dfrbp_1
*I *1727:Y O *D sg13g2_o21ai_1
*CAP
1 *1922:D 0.000121305
2 *1727:Y 0.00019964
3 *95:8 0.000320945
4 *1922:D *1726:A 0.000234683
5 *1922:D *1922:CLK 0
6 *95:8 *988:29 0.000373213
7 *95:8 *1162:8 0
*RES
1 *1727:Y *95:8 42.1208 
2 *95:8 *1922:D 41.2056 
*END

*D_NET *96 0.000861331
*CONN
*I *1581:B I *D sg13g2_xor2_1
*I *1580:Y O *D sg13g2_nor2_1
*CAP
1 *1581:B 0.000321044
2 *1580:Y 0.000321044
3 *1581:B *1580:B 3.7631e-05
4 *1581:B *1582:B 0
5 *1581:B *378:20 0
6 *1581:B *382:6 0
7 *1581:B *382:10 0
8 *1581:B *667:24 0.000181611
*RES
1 *1580:Y *1581:B 42.9568 
*END

*D_NET *97 0.000686201
*CONN
*I *1582:B I *D sg13g2_and2_1
*I *1581:X O *D sg13g2_xor2_1
*CAP
1 *1582:B 0.000343101
2 *1581:X 0.000343101
3 *1582:B *1580:B 0
4 *1582:B *378:20 0
5 *1582:B *667:24 0
6 *1581:B *1582:B 0
*RES
1 *1581:X *1582:B 42.5344 
*END

*D_NET *98 0.00112455
*CONN
*I *1585:A1 I *D sg13g2_mux2_1
*I *1583:Y O *D sg13g2_nor2b_1
*CAP
1 *1585:A1 0
2 *1583:Y 0.000407791
3 *98:10 0.000407791
4 *98:10 *1587:A_N 0
5 *98:10 *1867:CLK 0
6 *98:10 *99:23 0
7 *98:10 *668:38 0
8 *98:10 *669:14 0
9 *98:10 *669:44 0.000308969
*RES
1 *1583:Y *98:10 43.608 
2 *98:10 *1585:A1 40 
*END

*D_NET *99 0.00138082
*CONN
*I *1587:B I *D sg13g2_nand2b_1
*I *1585:S I *D sg13g2_mux2_1
*I *1584:Y O *D sg13g2_nor3_1
*CAP
1 *1587:B 0
2 *1585:S 0
3 *1584:Y 0.000161027
4 *99:23 0.000424133
5 *99:8 0.00058516
6 *99:8 *1588:A 0
7 *99:8 *668:12 0
8 *99:23 *669:33 0.000210497
9 *99:23 *669:44 0
10 *1584:B *99:8 0
11 *98:10 *99:23 0
*RES
1 *1584:Y *99:8 21.4168 
2 *99:8 *1585:S 20 
3 *99:8 *99:23 43.8918 
4 *99:23 *1587:B 20 
*END

*D_NET *100 0.000896707
*CONN
*I *1586:B I *D sg13g2_and2_1
*I *1585:X O *D sg13g2_mux2_1
*CAP
1 *1586:B 0
2 *1585:X 0.000209245
3 *100:10 0.000209245
4 *100:10 *186:21 0.000243385
5 *100:10 *668:12 0
6 *100:10 *668:24 0
7 *1866:D *100:10 0.000234832
*RES
1 *1585:X *100:10 42.3144 
2 *100:10 *1586:B 40 
*END

*D_NET *101 0.000665343
*CONN
*I *1588:C I *D sg13g2_and3_1
*I *1587:Y O *D sg13g2_nand2b_1
*CAP
1 *1588:C 0.000332671
2 *1587:Y 0.000332671
3 *1588:C *1587:A_N 0
4 *1588:C *1588:A 0
5 *1867:D *1588:C 0
*RES
1 *1587:Y *1588:C 43.1152 
*END

*D_NET *107 0.00436682
*CONN
*I *1596:A1 I *D sg13g2_a21oi_1
*I *1594:Y O *D sg13g2_nand2_1
*CAP
1 *1596:A1 0
2 *1594:Y 0.000729081
3 *107:10 0.000729081
4 *107:10 *1603:A 0
5 *107:10 *1607:A 0
6 *107:10 *1608:C 0.000818903
7 *107:10 *795:15 0.000287486
8 *107:10 *797:9 0
9 *107:10 *1022:27 0.000504067
10 *107:10 *1022:42 0.000324458
11 *107:10 *1022:57 6.48756e-05
12 *107:10 *1030:42 0.000828525
13 *107:10 *1030:55 8.03372e-05
*RES
1 *1594:Y *107:10 48.5448 
2 *107:10 *1596:A1 40 
*END

*D_NET *108 0.00138601
*CONN
*I *1596:A2 I *D sg13g2_a21oi_1
*I *1595:Y O *D sg13g2_nand3_1
*CAP
1 *1596:A2 6.37583e-05
2 *1595:Y 0.000382218
3 *108:10 0.000445976
4 *1596:A2 *1186:A2 2.21365e-05
5 *1596:A2 *1596:B1 0
6 *1596:A2 *183:22 0
7 *108:10 *1595:B 0
8 *108:10 *183:22 0
9 *108:10 *670:10 0
10 *108:10 *1022:27 0.000471919
*RES
1 *1595:Y *108:10 43.608 
2 *108:10 *1596:A2 40.572 
*END

*D_NET *109 0.000585502
*CONN
*I *1599:A1 I *D sg13g2_a21oi_1
*I *1597:Y O *D sg13g2_nand2_1
*CAP
1 *1599:A1 0.00022867
2 *1597:Y 0.00022867
3 *1599:A1 *1597:A 0
4 *1599:A1 *1597:B 0
5 *1599:A1 *984:166 0
6 *1599:A1 *987:25 0
7 *52:10 *1599:A1 0.000128161
*RES
1 *1597:Y *1599:A1 42.0592 
*END

*D_NET *110 0.00161221
*CONN
*I *1599:A2 I *D sg13g2_a21oi_1
*I *1598:Y O *D sg13g2_nand3_1
*CAP
1 *1599:A2 0.000795038
2 *1598:Y 0.000795038
3 *1599:A2 *1572:B 0
4 *1599:A2 *1598:B 2.21365e-05
5 *1599:A2 *1623:A1 0
6 *1599:A2 *219:10 0
7 *1599:A2 *379:14 0
8 *1599:A2 *984:166 0
9 *1599:A2 *987:10 0
10 *1572:A *1599:A2 0
*RES
1 *1598:Y *1599:A2 47.3656 
*END

*D_NET *111 0.00124273
*CONN
*I *1602:A1 I *D sg13g2_a21oi_1
*I *1600:Y O *D sg13g2_nand2_1
*CAP
1 *1602:A1 0.000306787
2 *1600:Y 0.000306787
3 *1602:A1 *1600:A 0
4 *1602:A1 *1600:B 0.00023506
5 *1602:A1 *1602:A2 1.54556e-05
6 *1602:A1 *1602:B1 0
7 *1602:A1 *1785:A 0.000250248
8 *1602:A1 *1026:22 0
9 *1602:A1 *1026:138 0
10 *1602:A1 *1030:91 0
11 *1876:D *1602:A1 0.000128389
*RES
1 *1600:Y *1602:A1 43.1064 
*END

*D_NET *112 0.00141659
*CONN
*I *1602:A2 I *D sg13g2_a21oi_1
*I *1601:Y O *D sg13g2_nand3_1
*CAP
1 *1602:A2 0.000465945
2 *1601:Y 0.000465945
3 *1602:A2 *1785:A 0
4 *1602:A2 *183:37 7.51688e-05
5 *1602:A2 *380:33 0.000394078
6 *1602:A2 *1000:6 0
7 *1602:A2 *1030:91 0
8 *1602:A1 *1602:A2 1.54556e-05
9 *1876:D *1602:A2 0
*RES
1 *1601:Y *1602:A2 44.752 
*END

*D_NET *113 0.00271023
*CONN
*I *1606:A1 I *D sg13g2_a21oi_1
*I *1603:Y O *D sg13g2_nand2_1
*CAP
1 *1606:A1 4.21239e-05
2 *1603:Y 0.000616955
3 *113:10 0.000659079
4 *1606:A1 *1186:A2 0
5 *1606:A1 *1186:B1 0
6 *1606:A1 *183:22 0
7 *113:10 *1310:A 0
8 *113:10 *1310:B 0
9 *113:10 *1310:C 0
10 *113:10 *1595:A 0
11 *113:10 *1606:B1 4.78023e-05
12 *113:10 *183:12 0.000163389
13 *113:10 *183:22 0.00030853
14 *113:10 *339:10 0
15 *113:10 *984:192 0.000872352
16 *54:10 *113:10 0
*RES
1 *1603:Y *113:10 46.6968 
2 *113:10 *1606:A1 40.2992 
*END

*D_NET *115 0.00109318
*CONN
*I *1606:A2 I *D sg13g2_a21oi_1
*I *1605:Y O *D sg13g2_nand3_1
*CAP
1 *1606:A2 0
2 *1605:Y 0.000303439
3 *115:8 0.000303439
4 *115:8 *183:12 0.000178091
5 *115:8 *183:22 0.000308217
6 *115:8 *1117:8 0
*RES
1 *1605:Y *115:8 43.0448 
2 *115:8 *1606:A2 40 
*END

*D_NET *116 0.000570386
*CONN
*I *1609:A1 I *D sg13g2_a21oi_1
*I *1607:Y O *D sg13g2_nand2_1
*CAP
1 *1609:A1 0.000133514
2 *1607:Y 0.000133514
3 *1609:A1 *1607:A 0
4 *1609:A1 *1607:B 0.000287904
5 *1609:A1 *1608:C 0
6 *1609:A1 *1609:A2 1.54556e-05
7 *1609:A1 *192:9 0
*RES
1 *1607:Y *1609:A1 41.4168 
*END

*D_NET *117 0.000493197
*CONN
*I *1609:A2 I *D sg13g2_a21oi_1
*I *1608:Y O *D sg13g2_nand3_1
*CAP
1 *1609:A2 0.000198678
2 *1608:Y 0.000198678
3 *1609:A2 *1607:A 0
4 *1609:A2 *1607:B 0
5 *1609:A2 *1608:B 4.15789e-05
6 *1609:A2 *1608:C 0
7 *1609:A2 *1000:51 3.8807e-05
8 *1609:A2 *1026:50 0
9 *1609:A1 *1609:A2 1.54556e-05
*RES
1 *1608:Y *1609:A2 41.6896 
*END

*D_NET *118 0.00169893
*CONN
*I *1613:A1 I *D sg13g2_a21oi_1
*I *1610:Y O *D sg13g2_nand2_1
*CAP
1 *1613:A1 0.000179596
2 *1610:Y 0.000467727
3 *118:14 0.000647323
4 *1613:A1 *1613:A2 0
5 *1613:A1 *799:13 0
6 *118:14 *1600:B 0
7 *118:14 *1613:A2 7.508e-05
8 *118:14 *1617:A2 0.000127923
9 *118:14 *119:10 7.51291e-05
10 *118:14 *1022:76 0
11 *118:14 *1022:78 0
12 *118:14 *1030:91 0.000126148
*RES
1 *1610:Y *118:14 44.0216 
2 *118:14 *1613:A1 41.3552 
*END

*D_NET *119 0.0014837
*CONN
*I *1613:A2 I *D sg13g2_a21oi_1
*I *1611:Y O *D sg13g2_nand3_1
*CAP
1 *1613:A2 0.000285091
2 *1611:Y 6.88058e-05
3 *119:10 0.000353897
4 *1613:A2 *1611:C 0
5 *1613:A2 *1616:B 4.13824e-05
6 *1613:A2 *1616:A 3.86198e-05
7 *1613:A2 *1617:A2 0.000392126
8 *1613:A2 *799:13 0
9 *119:10 *792:19 7.98231e-05
10 *119:10 *1030:91 7.37474e-05
11 *1613:A1 *1613:A2 0
12 *118:14 *1613:A2 7.508e-05
13 *118:14 *119:10 7.51291e-05
*RES
1 *1611:Y *119:10 40.7568 
2 *119:10 *1613:A2 42.684 
*END

*D_NET *122 0.000540973
*CONN
*I *1617:A1 I *D sg13g2_a21oi_1
*I *1615:Y O *D sg13g2_nand2_1
*CAP
1 *1617:A1 5.27317e-05
2 *1615:Y 5.27317e-05
3 *1617:A1 *124:12 0.000233222
4 *1617:A1 *987:56 2.20968e-05
5 *57:10 *1617:A1 0.00018019
*RES
1 *1615:Y *1617:A1 40.9328 
*END

*D_NET *123 0.0012031
*CONN
*I *1617:A2 I *D sg13g2_a21oi_1
*I *1616:Y O *D sg13g2_nand3_1
*CAP
1 *1617:A2 0.000315207
2 *1616:Y 0.000315207
3 *1617:A2 *1600:A 0
4 *1617:A2 *1600:B 0
5 *1617:A2 *1602:B1 0
6 *1617:A2 *1617:B1 1.53099e-05
7 *1617:A2 *380:16 0
8 *1617:A2 *987:56 3.7328e-05
9 *1613:A2 *1617:A2 0.000392126
10 *118:14 *1617:A2 0.000127923
*RES
1 *1616:Y *1617:A2 43.8016 
*END

*D_NET *124 0.00243352
*CONN
*I *1620:A1 I *D sg13g2_a21oi_1
*I *1618:Y O *D sg13g2_nand2_1
*CAP
1 *1620:A1 3.92371e-05
2 *1618:Y 0.00085803
3 *124:12 0.000897267
4 *124:12 *192:43 0.000405761
5 *124:12 *799:13 0
6 *124:12 *800:11 0
7 *124:12 *987:56 0
8 *1617:A1 *124:12 0.000233222
9 *56:8 *124:12 0
10 *57:10 *124:12 0
*RES
1 *1618:Y *124:12 46.5472 
2 *124:12 *1620:A1 40.2992 
*END

*D_NET *125 0.00130945
*CONN
*I *1620:A2 I *D sg13g2_a21oi_1
*I *1619:Y O *D sg13g2_nand3_1
*CAP
1 *1620:A2 0.000396413
2 *1619:Y 0.000136793
3 *125:8 0.000533206
4 *1620:A2 *800:11 0
5 *125:8 *792:19 0
6 *125:8 *1003:18 0.000243041
*RES
1 *1619:Y *125:8 41.3816 
2 *125:8 *1620:A2 43.6784 
*END

*D_NET *127 0.000284154
*CONN
*I *1623:A2 I *D sg13g2_a21oi_1
*I *1622:Y O *D sg13g2_nor2_1
*CAP
1 *1623:A2 0.000105874
2 *1622:Y 0.000105874
3 *1623:A2 *1622:B 0
4 *1623:A2 *988:59 0
5 *1623:A2 *1022:6 0
6 *1622:A *1623:A2 7.24063e-05
7 *20:52 *1623:A2 0
*RES
1 *1622:Y *1623:A2 40.9944 
*END

*D_NET *128 0.000720013
*CONN
*I *1624:B I *D sg13g2_nor2_1
*I *1623:Y O *D sg13g2_a21oi_1
*CAP
1 *1624:B 0.000204952
2 *1623:Y 0.000204952
3 *1624:B *1864:CLK 0
4 *1624:B *198:49 0
5 *1624:B *988:59 0.00023506
6 *1864:D *1624:B 7.50503e-05
*RES
1 *1623:Y *1624:B 42.3144 
*END

*D_NET *129 0.00502103
*CONN
*I *1627:B I *D sg13g2_or2_1
*I *1658:C I *D sg13g2_nand3_1
*I *1790:A I *D sg13g2_buf_2
*I *1625:X O *D sg13g2_or2_1
*CAP
1 *1627:B 0.000421735
2 *1658:C 0.000242332
3 *1790:A 0.000207928
4 *1625:X 0.00033745
5 *129:12 0.000664856
6 *129:10 0.000973781
7 *1627:B *1175:A1 0
8 *1627:B *1627:A 0
9 *1627:B *1893:CLK 0
10 *1627:B *1893:RESET_B 0
11 *1627:B *131:10 0.000146028
12 *1627:B *209:27 0
13 *1627:B *462:10 0
14 *1658:C *1733:A 0
15 *1658:C *984:66 0
16 *1658:C *984:77 0
17 *1658:C *1020:135 0.000341274
18 *1790:A *1020:12 0
19 *1790:A *1020:135 0
20 *1790:A *1031:107 0.000276069
21 *129:10 *1632:B 0.000287487
22 *129:10 *463:12 0.000181422
23 *129:10 *1031:107 0.000422435
24 *129:10 *1033:16 0
25 *129:12 *1031:107 0.000390033
26 *1893:D *1627:B 0.000128201
27 *10:10 *129:10 0
*RES
1 *1625:X *129:10 43.6344 
2 *129:10 *129:12 2.3056 
3 *129:12 *1790:A 41.9382 
4 *129:12 *1658:C 42.3496 
5 *129:10 *1627:B 43.8984 
*END

*D_NET *131 0.00174129
*CONN
*I *1629:A1 I *D sg13g2_a21oi_1
*I *1630:B I *D sg13g2_xor2_1
*I *1627:X O *D sg13g2_or2_1
*CAP
1 *1629:A1 0
2 *1630:B 0
3 *1627:X 0.000316815
4 *131:27 0.000469729
5 *131:12 0.000469729
6 *131:10 0.000316815
7 *131:10 *1437:B 0
8 *131:10 *1437:A 0
9 *131:10 *1631:A2 0
10 *131:10 *209:12 0
11 *131:10 *209:27 0
12 *131:27 *1437:B 0
13 *131:27 *209:12 0
14 *131:27 *664:32 0
15 *131:27 *682:8 2.21754e-05
16 *131:27 *991:24 0
17 *131:27 *991:71 0
18 *1627:B *131:10 0.000146028
19 *60:8 *131:27 0
*RES
1 *1627:X *131:10 43.1592 
2 *131:10 *131:12 20 
3 *131:12 *1630:B 20 
4 *131:12 *131:27 44.224 
5 *131:27 *1629:A1 20 
*END

*D_NET *132 0.000403732
*CONN
*I *1629:A2 I *D sg13g2_a21oi_1
*I *1628:Y O *D sg13g2_a21oi_1
*CAP
1 *1629:A2 0.000161503
2 *1628:Y 0.000161503
3 *1629:A2 *1628:B1 8.07262e-05
4 *1629:A2 *1676:A 0
5 *1629:A2 *1676:B 0
6 *1629:A2 *464:12 0
*RES
1 *1628:Y *1629:A2 41.628 
*END

*D_NET *133 0.000955893
*CONN
*I *1631:A2 I *D sg13g2_a21oi_1
*I *1630:X O *D sg13g2_xor2_1
*CAP
1 *1631:A2 0.000477946
2 *1630:X 0.000477946
3 *1631:A2 *1437:B 0
4 *1631:A2 *209:27 0
5 *1631:A2 *682:8 0
6 *1884:D *1631:A2 0
7 *131:10 *1631:A2 0
*RES
1 *1630:X *1631:A2 43.9864 
*END

*D_NET *134 0.000707013
*CONN
*I *1633:B I *D sg13g2_xor2_1
*I *1632:Y O *D sg13g2_nor2_1
*CAP
1 *1633:B 0.000167985
2 *1632:Y 0.000167985
3 *1633:B *1633:A 0.000371044
4 *1633:B *1634:B 0
5 *1633:B *137:10 0
6 *1633:B *466:25 0
*RES
1 *1632:Y *1633:B 41.892 
*END

*D_NET *135 0.000834093
*CONN
*I *1634:B I *D sg13g2_and2_1
*I *1633:X O *D sg13g2_xor2_1
*CAP
1 *1634:B 0.000264587
2 *1633:X 0.000264587
3 *1634:B *1633:A 0.000181839
4 *1634:B *466:12 4.79124e-05
5 *1634:B *466:25 0
6 *1633:B *1634:B 0
7 *62:10 *1634:B 7.51684e-05
*RES
1 *1633:X *1634:B 42.5344 
*END

*D_NET *136 0.0011484
*CONN
*I *1637:A1 I *D sg13g2_mux2_1
*I *1635:Y O *D sg13g2_nor2b_1
*CAP
1 *1637:A1 0.000210958
2 *1635:Y 0.000210958
3 *1637:A1 *1635:B_N 0.00012839
4 *1637:A1 *1638:B 0.000181462
5 *1637:A1 *466:61 0.000288014
6 *1637:A1 *684:29 0.000128618
7 *1637:A1 *685:18 0
*RES
1 *1635:Y *1637:A1 42.6224 
*END

*D_NET *137 0.00158451
*CONN
*I *1639:B I *D sg13g2_nand2b_1
*I *1637:S I *D sg13g2_mux2_1
*I *1636:Y O *D sg13g2_nor3_1
*CAP
1 *1639:B 7.12118e-06
2 *1637:S 0
3 *1636:Y 0.000231669
4 *137:20 0.000353304
5 *137:10 0.000592095
6 *137:10 *1639:A_N 6.18224e-06
7 *137:10 *1640:B 0
8 *137:10 *466:25 0
9 *137:10 *466:44 7.51291e-05
10 *137:10 *683:21 0
11 *137:20 *1639:A_N 0.000243877
12 *137:20 *1640:B 0
13 *137:20 *1640:C 7.51291e-05
14 *137:20 *466:44 0
15 *137:20 *466:61 0
16 *137:20 *684:29 0
17 *137:20 *684:37 0
18 *137:20 *685:30 0
19 *1633:B *137:10 0
*RES
1 *1636:Y *137:10 22.3496 
2 *137:10 *137:20 43.0624 
3 *137:20 *1637:S 20 
4 *137:10 *1639:B 20.1584 
*END

*D_NET *138 0.000487953
*CONN
*I *1638:B I *D sg13g2_and2_1
*I *1637:X O *D sg13g2_mux2_1
*CAP
1 *1638:B 8.91257e-05
2 *1637:X 8.91257e-05
3 *1638:B *684:29 0.00012824
4 *1638:B *684:37 0
5 *1637:A1 *1638:B 0.000181462
*RES
1 *1637:X *1638:B 41.1792 
*END

*D_NET *139 0.000667409
*CONN
*I *1640:C I *D sg13g2_and3_1
*I *1639:Y O *D sg13g2_nand2b_1
*CAP
1 *1640:C 0.000224217
2 *1639:Y 0.000224217
3 *1640:C *1639:A_N 0.000128389
4 *1640:C *1640:B 1.54556e-05
5 *1640:C *1886:CLK 0
6 *1640:C *466:44 0
7 *1640:C *683:10 0
8 *1640:C *685:18 0
9 *1886:D *1640:C 0
10 *137:20 *1640:C 7.51291e-05
*RES
1 *1639:Y *1640:C 42.2 
*END

*D_NET *145 0.000288007
*CONN
*I *1648:A1 I *D sg13g2_a21oi_1
*I *1646:Y O *D sg13g2_nand2_1
*CAP
1 *1648:A1 0.000133021
2 *1646:Y 0.000133021
3 *1648:A1 *1646:A 2.19663e-05
4 *1648:A1 *1648:B1 0
5 *1648:A1 *664:26 0
*RES
1 *1646:Y *1648:A1 41.144 
*END

*D_NET *146 0.00100788
*CONN
*I *1648:A2 I *D sg13g2_a21oi_1
*I *1647:Y O *D sg13g2_nand3_1
*CAP
1 *1648:A2 0.000413249
2 *1647:Y 0.000413249
3 *1648:A2 *686:6 0.000181383
4 *1648:A2 *992:101 0
*RES
1 *1647:Y *1648:A2 44.004 
*END

*D_NET *147 0.000293172
*CONN
*I *1651:A1 I *D sg13g2_a21oi_1
*I *1649:Y O *D sg13g2_nand2_1
*CAP
1 *1651:A1 0.000146586
2 *1649:Y 0.000146586
3 *1651:A1 *1649:A 0
4 *1651:A1 *992:82 0
*RES
1 *1649:Y *1651:A1 41.4784 
*END

*D_NET *148 0.000442984
*CONN
*I *1651:A2 I *D sg13g2_a21oi_1
*I *1650:Y O *D sg13g2_nand3_1
*CAP
1 *1651:A2 0.000157203
2 *1650:Y 0.000157203
3 *1651:A2 *1650:B 0
4 *1651:A2 *1650:A 0
5 *1651:A2 *992:82 0.000128578
*RES
1 *1650:Y *1651:A2 41.4784 
*END

*D_NET *149 0.000517024
*CONN
*I *1655:A1 I *D sg13g2_a21oi_1
*I *1652:Y O *D sg13g2_nand2_1
*CAP
1 *1655:A1 0.000167613
2 *1652:Y 0.000167613
3 *1655:A1 *1419:A 0
4 *1896:D *1655:A1 0.000181799
*RES
1 *1652:Y *1655:A1 41.76 
*END

*D_NET *150 0.000539287
*CONN
*I *1655:A2 I *D sg13g2_a21oi_1
*I *1653:Y O *D sg13g2_nand3_1
*CAP
1 *1655:A2 0
2 *1653:Y 0.000269643
3 *150:10 0.000269643
4 *150:10 *1653:C 0
5 *150:10 *1020:18 0
6 *150:10 *1057:10 0
7 *1896:D *150:10 0
*RES
1 *1653:Y *150:10 42.3144 
2 *150:10 *1655:A2 40 
*END

*D_NET *152 0.000478067
*CONN
*I *1659:A1 I *D sg13g2_a21oi_1
*I *1656:Y O *D sg13g2_nand2_1
*CAP
1 *1659:A1 9.7518e-05
2 *1656:Y 9.7518e-05
3 *1659:A1 *154:10 0
4 *1897:D *1659:A1 0.000283031
*RES
1 *1656:Y *1659:A1 41.144 
*END

*D_NET *154 0.000598775
*CONN
*I *1659:A2 I *D sg13g2_a21oi_1
*I *1658:Y O *D sg13g2_nand3_1
*CAP
1 *1659:A2 1.00026e-05
2 *1658:Y 0.000198579
3 *154:10 0.000208582
4 *154:10 *1815:A 0
5 *154:10 *1020:135 0.000181611
6 *1659:A1 *154:10 0
*RES
1 *1658:Y *154:10 41.0912 
2 *154:10 *1659:A2 40.0924 
*END

*D_NET *155 0.000435718
*CONN
*I *1662:A1 I *D sg13g2_a21oi_1
*I *1660:Y O *D sg13g2_nand2_1
*CAP
1 *1662:A1 0.000194129
2 *1660:Y 0.000194129
3 *1662:A1 *1660:B 0
4 *1662:A1 *1662:A2 4.74605e-05
5 *1662:A1 *1669:A2 0
*RES
1 *1660:Y *1662:A1 41.4168 
*END

*D_NET *156 0.00155228
*CONN
*I *1662:A2 I *D sg13g2_a21oi_1
*I *1661:Y O *D sg13g2_nand3_1
*CAP
1 *1662:A2 0.000343396
2 *1661:Y 0.000343396
3 *1662:A2 *1662:B1 0
4 *1662:A2 *1669:A2 0.000818024
5 *1662:A2 *992:23 0
6 *1662:A2 *992:33 0
7 *1662:A1 *1662:A2 4.74605e-05
*RES
1 *1661:Y *1662:A2 43.7136 
*END

*D_NET *157 0.000458882
*CONN
*I *1665:A1 I *D sg13g2_a21oi_1
*I *1663:Y O *D sg13g2_nand2_1
*CAP
1 *1665:A1 0.000184675
2 *1663:Y 0.000184675
3 *1665:A1 *1663:A 2.21361e-05
4 *1665:A1 *1665:B1 6.73952e-05
5 *1665:A1 *834:19 0
6 *1899:D *1665:A1 0
*RES
1 *1663:Y *1665:A1 41.716 
*END

*D_NET *158 0.000385735
*CONN
*I *1665:A2 I *D sg13g2_a21oi_1
*I *1664:Y O *D sg13g2_nand3_1
*CAP
1 *1665:A2 0.000192867
2 *1664:Y 0.000192867
3 *1665:A2 *1664:B 0
4 *1665:A2 *1665:B1 0
5 *1665:A2 *1672:A2 0
6 *1665:A2 *834:19 0
*RES
1 *1664:Y *1665:A2 41.892 
*END

*D_NET *160 0.000577659
*CONN
*I *1669:A1 I *D sg13g2_a21oi_1
*I *1667:Y O *D sg13g2_nand2_1
*CAP
1 *1669:A1 0.000114617
2 *1667:Y 0.000114617
3 *1669:A1 *1660:B 0
4 *1669:A1 *1669:B1 0
5 *1669:A1 *1027:58 7.51688e-05
6 *75:12 *1669:A1 0.000273257
*RES
1 *1667:Y *1669:A1 41.3376 
*END

*D_NET *161 0.00317031
*CONN
*I *1669:A2 I *D sg13g2_a21oi_1
*I *1668:Y O *D sg13g2_nand3_1
*CAP
1 *1669:A2 0.00066884
2 *1668:Y 0.00066884
3 *1669:A2 *1660:B 0
4 *1669:A2 *1661:A 3.86694e-05
5 *1669:A2 *1668:B 0
6 *1669:A2 *991:47 0.000975934
7 *1669:A2 *992:33 0
8 *1669:A2 *1027:48 0
9 *1669:A2 *1027:58 0
10 *1669:A2 *1057:10 0
11 *1662:A1 *1669:A2 0
12 *1662:A2 *1669:A2 0.000818024
*RES
1 *1668:Y *1669:A2 47.7 
*END

*D_NET *162 0.000756953
*CONN
*I *1672:A1 I *D sg13g2_a21oi_1
*I *1670:Y O *D sg13g2_nand2_1
*CAP
1 *1672:A1 0.000123386
2 *1670:Y 0.000101496
3 *162:10 0.000224882
4 *1672:A1 *1670:A 2.15444e-05
5 *1672:A1 *1672:A2 2.21754e-05
6 *1672:A1 *1672:B1 2.81734e-05
7 *162:10 *1013:10 0.000112425
8 *162:10 *1027:34 0.000122871
9 *76:10 *1672:A1 0
*RES
1 *1670:Y *162:10 40.9416 
2 *162:10 *1672:A1 40.9328 
*END

*D_NET *163 0.000563932
*CONN
*I *1672:A2 I *D sg13g2_a21oi_1
*I *1671:Y O *D sg13g2_nand3_1
*CAP
1 *1672:A2 0.000169119
2 *1671:Y 0.000169119
3 *1672:A2 *1664:B 0
4 *1672:A2 *1670:A 0
5 *1672:A2 *1671:B 0
6 *1672:A2 *975:26 7.51291e-05
7 *1672:A2 *1027:34 0
8 *1665:A2 *1672:A2 0
9 *1672:A1 *1672:A2 2.21754e-05
10 *76:10 *1672:A2 0.000128389
*RES
1 *1671:Y *1672:A2 42.0504 
*END

*D_NET *165 0.000651182
*CONN
*I *1675:A2 I *D sg13g2_a21oi_1
*I *1674:Y O *D sg13g2_nor2_1
*CAP
1 *1675:A2 0
2 *1674:Y 0.000155916
3 *165:10 0.000155916
4 *165:10 *1628:A1 0.000128351
5 *165:10 *1675:A1 0
6 *165:10 *664:32 0.000211
*RES
1 *1674:Y *165:10 41.7072 
2 *165:10 *1675:A2 40 
*END

*D_NET *166 0.000597158
*CONN
*I *1676:B I *D sg13g2_nor2_1
*I *1675:Y O *D sg13g2_a21oi_1
*CAP
1 *1676:B 0.00026507
2 *1675:Y 0.00026507
3 *1676:B *1628:A1 0
4 *1676:B *1629:B1 0
5 *1676:B *1675:B1 6.70179e-05
6 *1676:B *464:12 0
7 *1676:B *1142:10 0
8 *1629:A2 *1676:B 0
*RES
1 *1675:Y *1676:B 42.684 
*END

*D_NET *167 0.0029476
*CONN
*I *1678:A2 I *D sg13g2_a21o_1
*I *1677:Y O *D sg13g2_nor2_1
*CAP
1 *1678:A2 0.000398793
2 *1677:Y 0.000444058
3 *167:14 0.000842851
4 *1678:A2 *1720:A 0
5 *1678:A2 *1722:A1 0
6 *1678:A2 *1738:A 0
7 *1678:A2 *1787:A 0
8 *1678:A2 *984:128 0.000818904
9 *1678:A2 *990:46 0
10 *1678:A2 *1024:10 0
11 *1678:A2 *1028:14 0.000181839
12 *167:14 *1513:A 0
13 *167:14 *1677:A 0
14 *167:14 *1677:B 0
15 *167:14 *1748:A 0
16 *167:14 *1920:CLK 0
17 *167:14 *179:12 0
18 *167:14 *984:128 0
19 *167:14 *989:10 0.000261159
20 *1920:D *1678:A2 0
*RES
1 *1677:Y *167:14 44.2328 
2 *167:14 *1678:A2 44.6288 
*END

*D_NET *168 0.00463283
*CONN
*I *1724:C I *D sg13g2_nand3_1
*I *1700:C I *D sg13g2_nand3_1
*I *1791:A I *D sg13g2_buf_2
*I *1678:X O *D sg13g2_a21o_1
*CAP
1 *1724:C 0.000462195
2 *1700:C 0.000598274
3 *1791:A 0.000484488
4 *1678:X 0.00021261
5 *168:23 0.00157071
6 *168:8 0.00120734
7 *1700:C *1699:B 0
8 *1700:C *1700:B 2.20968e-05
9 *1700:C *1700:A 0
10 *1700:C *1715:A1 0
11 *1700:C *1839:A 7.51291e-05
12 *1700:C *978:20 0
13 *1724:C *1717:B 0
14 *1724:C *196:10 0
15 *1724:C *742:17 0
16 *1724:C *1028:55 0
17 *1724:C *1158:8 0
18 *1791:A *1686:A2 0
19 *1791:A *1024:16 0
20 *1791:A *1028:14 0
21 *1791:A *1028:24 0
22 *168:8 *1678:A1 0
23 *168:8 *222:10 0
24 *168:8 *979:8 0
25 *168:8 *1023:33 0
26 *168:23 *742:17 0
27 *168:23 *978:8 0
28 *168:23 *979:8 0
29 *168:23 *990:56 0
30 *168:23 *1023:33 0
31 *91:10 *1724:C 0
32 *91:10 *168:23 0
*RES
1 *1678:X *168:8 41.7512 
2 *168:8 *1791:A 44.3494 
3 *168:8 *168:23 4.8928 
4 *168:23 *1700:C 45.7992 
5 *168:23 *1724:C 43.9688 
*END

*D_NET *170 0.00226867
*CONN
*I *1684:A1 I *D sg13g2_a21oi_1
*I *1685:B I *D sg13g2_xor2_1
*I *1680:X O *D sg13g2_or2_1
*CAP
1 *1684:A1 0.000207962
2 *1685:B 0.000151681
3 *1680:X 0.000195159
4 *170:10 0.000554802
5 *1684:A1 *1686:A1 0.000146063
6 *1684:A1 *990:56 7.51291e-05
7 *1684:A1 *1024:31 0.000130065
8 *1684:A1 *1032:108 0.000325157
9 *1685:B *1683:A2 0
10 *1685:B *1686:A1 0
11 *1685:B *1686:A2 7.53575e-05
12 *170:10 *1683:A2 0.000181462
13 *170:10 *173:8 0
14 *170:10 *1032:12 0.00014575
15 *170:10 *1032:108 8.00835e-05
*RES
1 *1680:X *170:10 41.9184 
2 *170:10 *1685:B 41.3552 
3 *170:10 *1684:A1 42.2352 
*END

*D_NET *171 0.0025256
*CONN
*I *1720:B I *D sg13g2_nand2_1
*I *1787:A I *D sg13g2_buf_2
*I *1681:X O *D sg13g2_and2_1
*CAP
1 *1720:B 0.000192307
2 *1787:A 0.000107178
3 *1681:X 0.000558337
4 *171:10 0.000857823
5 *1720:B *989:10 0
6 *1720:B *1023:14 0
7 *1787:A *984:128 0.000340896
8 *1787:A *990:46 0.000340896
9 *171:10 *1511:A 0
10 *171:10 *532:12 0.000128161
11 *171:10 *990:16 0
12 *171:10 *990:25 0
13 *171:10 *990:46 0
14 *171:10 *1023:14 0
15 *1678:A2 *1787:A 0
*RES
1 *1681:X *171:10 44.2944 
2 *171:10 *1787:A 41.6654 
3 *171:10 *1720:B 41.5664 
*END

*D_NET *173 0.00125395
*CONN
*I *1684:A2 I *D sg13g2_a21oi_1
*I *1683:Y O *D sg13g2_a21oi_1
*CAP
1 *1684:A2 2.52799e-05
2 *1683:Y 0.000416088
3 *173:8 0.000441368
4 *173:8 *1686:A1 0.000145541
5 *173:8 *1688:A 0
6 *173:8 *697:23 0
7 *173:8 *1024:31 0.000112932
8 *173:8 *1028:24 0.000112739
9 *173:8 *1028:33 0
10 *173:8 *1032:12 0
11 *170:10 *173:8 0
*RES
1 *1683:Y *173:8 43.784 
2 *173:8 *1684:A2 40.2728 
*END

*D_NET *174 0.000621209
*CONN
*I *1686:A2 I *D sg13g2_a21oi_1
*I *1685:X O *D sg13g2_xor2_1
*CAP
1 *1686:A2 0.000201463
2 *1685:X 0.000201463
3 *1686:A2 *1683:A2 0
4 *1686:A2 *1685:A 0.000127471
5 *1686:A2 *1686:A1 1.54556e-05
6 *1686:A2 *698:8 0
7 *1685:B *1686:A2 7.53575e-05
8 *1791:A *1686:A2 0
*RES
1 *1685:X *1686:A2 42.112 
*END

*D_NET *175 0.00577617
*CONN
*I *1694:C I *D sg13g2_nor3_1
*I *1693:A I *D sg13g2_nor2_1
*I *1690:A I *D sg13g2_nor2_1
*I *1687:Y O *D sg13g2_nand2_1
*CAP
1 *1694:C 0.000993657
2 *1693:A 8.57309e-05
3 *1690:A 0.000947871
4 *1687:Y 2.16311e-05
5 *175:10 0.00124018
6 *175:6 0.00122186
7 *1690:A *1510:B 0.000553404
8 *1690:A *1511:A 0
9 *1690:A *1511:B 0
10 *1690:A *1681:A 0
11 *1690:A *1689:B 0
12 *1690:A *1690:B 0
13 *1690:A *1913:CLK 0
14 *1690:A *530:8 0
15 *1690:A *531:10 0
16 *1690:A *532:12 0
17 *1690:A *1023:14 0
18 *1693:A *1681:A 4.65959e-05
19 *1693:A *1693:B 0
20 *1693:A *178:12 0
21 *1693:A *532:12 7.53182e-05
22 *1694:C *1513:A 0
23 *1694:C *1513:D 0.000181611
24 *1694:C *1691:B 0
25 *1694:C *1692:A2 0
26 *1694:C *1694:A 0
27 *1694:C *1694:B 4.79124e-05
28 *1694:C *1913:CLK 0
29 *1694:C *1922:CLK 0
30 *1694:C *178:12 0.000103993
31 *1694:C *1147:12 0
32 *175:6 *1513:D 0
33 *175:10 *1691:A 0
34 *175:10 *1693:B 0
35 *175:10 *1913:CLK 0
36 *175:10 *178:12 7.46449e-05
37 *175:10 *1023:61 0.00018176
38 *1905:D *1690:A 0
39 *1907:D *1694:C 0
*RES
1 *1687:Y *175:6 20.2728 
2 *175:6 *175:10 2.024 
3 *175:10 *1690:A 28.756 
4 *175:10 *1693:A 20.9416 
5 *175:6 *1694:C 27.8232 
*END

*D_NET *176 0.000722797
*CONN
*I *1689:B I *D sg13g2_xnor2_1
*I *1688:Y O *D sg13g2_nor2_1
*CAP
1 *1689:B 2.56454e-05
2 *1688:Y 0.000335753
3 *176:8 0.000361399
4 *1689:B *1510:B 0
5 *1689:B *1690:B 0
6 *176:8 *1510:B 0
7 *176:8 *1688:A 0
8 *176:8 *979:8 0
9 *1690:A *1689:B 0
*RES
1 *1688:Y *176:8 42.6752 
2 *176:8 *1689:B 40.2728 
*END

*D_NET *177 0.00053764
*CONN
*I *1690:B I *D sg13g2_nor2_1
*I *1689:Y O *D sg13g2_xnor2_1
*CAP
1 *1690:B 0.000204531
2 *1689:Y 0.000204531
3 *1690:B *1510:B 0
4 *1690:B *1689:A 0.000128578
5 *1690:B *979:10 0
6 *1689:B *1690:B 0
7 *1690:A *1690:B 0
8 *1905:D *1690:B 0
*RES
1 *1689:Y *1690:B 42.2 
*END

*D_NET *178 0.000855112
*CONN
*I *1692:B1 I *D sg13g2_a21oi_1
*I *1691:Y O *D sg13g2_nor3_1
*CAP
1 *1692:B1 1.80965e-05
2 *1691:Y 0.00020064
3 *178:12 0.000218737
4 *178:12 *1691:A 0
5 *178:12 *1691:B 1.54556e-05
6 *178:12 *1692:A2 0.000112248
7 *178:12 *1693:B 0
8 *178:12 *977:26 0.000111296
9 *1693:A *178:12 0
10 *1694:C *178:12 0.000103993
11 *175:10 *178:12 7.46449e-05
*RES
1 *1691:Y *178:12 42.0064 
2 *178:12 *1692:B1 40.1122 
*END

*D_NET *179 0.0013523
*CONN
*I *1693:B I *D sg13g2_nor2_1
*I *1692:Y O *D sg13g2_a21oi_1
*CAP
1 *1693:B 0.000119094
2 *1692:Y 0.000388068
3 *179:12 0.000507162
4 *1693:B *1691:A 0
5 *1693:B *1691:B 0
6 *179:12 *1513:A 0
7 *179:12 *1692:A2 0
8 *179:12 *1748:A 0.000337978
9 *179:12 *1913:CLK 0
10 *179:12 *534:12 0
11 *1693:A *1693:B 0
12 *167:14 *179:12 0
13 *175:10 *1693:B 0
14 *178:12 *1693:B 0
*RES
1 *1692:Y *179:12 43.1416 
2 *179:12 *1693:B 40.968 
*END

*D_NET *183 0.00985723
*CONN
*I *1871:CLK I *D sg13g2_dfrbp_1
*I *1869:CLK I *D sg13g2_dfrbp_1
*I *1877:CLK I *D sg13g2_dfrbp_1
*I *1876:CLK I *D sg13g2_dfrbp_1
*I *1874:CLK I *D sg13g2_dfrbp_1
*I *1698:X O *D sg13g2_buf_16
*CAP
1 *1871:CLK 0.000251109
2 *1869:CLK 0.000342415
3 *1877:CLK 2.91036e-05
4 *1876:CLK 0
5 *1874:CLK 6.28393e-05
6 *1698:X 0.00141682
7 *183:61 0.00139075
8 *183:37 0.000762895
9 *183:22 0.00151605
10 *183:12 0.00133901
11 *1869:CLK *1357:A0 0
12 *1869:CLK *1357:A1 0
13 *1869:CLK *1357:S 7.51688e-05
14 *1869:CLK *912:18 0
15 *1871:CLK *376:10 0
16 *1871:CLK *912:18 0
17 *183:12 *339:10 0
18 *183:12 *339:14 0
19 *183:12 *673:10 0
20 *183:12 *984:192 0
21 *183:22 *1186:A2 0
22 *183:22 *1595:B 0
23 *183:22 *1595:A 0
24 *183:22 *1606:B1 2.81734e-05
25 *183:22 *339:10 0
26 *183:22 *670:10 2.21754e-05
27 *183:22 *1114:10 0
28 *183:37 *1310:A 0.000406506
29 *183:37 *1595:C 0.000309036
30 *183:37 *380:33 0
31 *183:37 *797:9 0
32 *183:37 *984:192 0
33 *183:37 *1030:42 0
34 *183:37 *1030:91 0
35 *183:37 *1067:10 0
36 *183:61 *1316:B1 0
37 *183:61 *338:31 0
38 *183:61 *346:10 0.000288053
39 *183:61 *376:10 0
40 *183:61 *377:10 0.000243414
41 *183:61 *984:192 0
42 *183:61 *984:207 0
43 *1596:A2 *183:22 0
44 *1602:A2 *183:37 7.51688e-05
45 *1606:A1 *183:22 0
46 *1869:D *1869:CLK 0
47 *1874:D *1874:CLK 0.000181233
48 *1874:D *183:22 0.000159097
49 *54:10 *183:22 0
50 *108:10 *183:22 0
51 *113:10 *183:12 0.000163389
52 *113:10 *183:22 0.00030853
53 *115:8 *183:12 0.000178091
54 *115:8 *183:22 0.000308217
*RES
1 *1698:X *183:12 44.9632 
2 *183:12 *183:22 26.6352 
3 *183:22 *1874:CLK 20.7216 
4 *183:22 *183:37 47.04 
5 *183:37 *1876:CLK 20 
6 *183:12 *1877:CLK 40.2992 
7 *1698:X *183:61 27.1544 
8 *183:61 *1869:CLK 43.5024 
9 *183:61 *1871:CLK 42.3056 
*END

*D_NET *184 0.000390352
*CONN
*I *1702:A1 I *D sg13g2_a21oi_1
*I *1699:Y O *D sg13g2_nand2_1
*CAP
1 *1702:A1 0.000195176
2 *1699:Y 0.000195176
3 *1702:A1 *990:60 0
4 *1702:A1 *990:77 0
*RES
1 *1699:Y *1702:A1 41.6896 
*END

*D_NET *185 0.00124727
*CONN
*I *1702:A2 I *D sg13g2_a21oi_1
*I *1700:Y O *D sg13g2_nand3_1
*CAP
1 *1702:A2 0.000268454
2 *1700:Y 0.000128813
3 *185:8 0.000397267
4 *1702:A2 *1699:B 0
5 *1702:A2 *990:56 0
6 *1702:A2 *990:60 0
7 *185:8 *740:13 0.000210195
8 *185:8 *1024:31 0.000242536
*RES
1 *1700:Y *185:8 41.3816 
2 *185:8 *1702:A2 41.9888 
*END

*D_NET *186 0.00564005
*CONN
*I *1868:CLK I *D sg13g2_dfrbp_1
*I *1870:CLK I *D sg13g2_dfrbp_1
*I *1866:CLK I *D sg13g2_dfrbp_1
*I *1867:CLK I *D sg13g2_dfrbp_1
*I *1873:CLK I *D sg13g2_dfrbp_1
*I *1701:X O *D sg13g2_buf_16
*CAP
1 *1868:CLK 0
2 *1870:CLK 0
3 *1866:CLK 2.54968e-05
4 *1867:CLK 0.000248983
5 *1873:CLK 0.00073968
6 *1701:X 0.00138993
7 *186:63 0.000554619
8 *186:50 0.000757164
9 *186:21 0.000722188
10 *1866:CLK *668:12 7.51688e-05
11 *1867:CLK *669:14 0.000286971
12 *1867:CLK *1106:12 0.00027559
13 *1873:CLK *1182:A 0
14 *1873:CLK *1186:A1 0
15 *1873:CLK *1358:A 0
16 *1873:CLK *1359:A 0
17 *1873:CLK *383:10 0
18 *1873:CLK *383:27 0
19 *186:21 *383:10 0
20 *186:21 *668:24 0
21 *186:21 *1106:12 3.25945e-05
22 *186:50 *1359:A 0.000288281
23 *186:63 *1356:A1 0
24 *186:63 *1356:S 0
25 *186:63 *1359:A 0
26 *186:63 *984:207 0
27 *186:63 *1108:8 0
28 *1866:D *1866:CLK 0
29 *1868:D *186:63 0
30 *1870:D *186:50 0
31 *20:10 *1873:CLK 0
32 *98:10 *1867:CLK 0
33 *100:10 *186:21 0.000243385
*RES
1 *1701:X *1873:CLK 26.5032 
2 *1701:X *186:21 24.8928 
3 *186:21 *1867:CLK 42.7104 
4 *186:21 *1866:CLK 40.2992 
5 *1701:X *186:50 22.3408 
6 *186:50 *1870:CLK 20 
7 *186:50 *186:63 45.6144 
8 *186:63 *1868:CLK 20 
*END

*D_NET *187 0.00037035
*CONN
*I *1705:A1 I *D sg13g2_a21oi_1
*I *1703:Y O *D sg13g2_nand2_1
*CAP
1 *1705:A1 6.85916e-05
2 *1703:Y 6.85916e-05
3 *1705:A1 *1703:B 0.000233167
*RES
1 *1703:Y *1705:A1 40.9328 
*END

*D_NET *188 0.00169275
*CONN
*I *1705:A2 I *D sg13g2_a21oi_1
*I *1704:Y O *D sg13g2_nand3_1
*CAP
1 *1705:A2 8.68045e-05
2 *1704:Y 0.000264754
3 *188:10 0.000351559
4 *1705:A2 *1706:A 0.000180665
5 *1705:A2 *1706:B 7.508e-05
6 *188:10 *703:8 0.000234832
7 *188:10 *741:13 0
8 *188:10 *742:17 0.000499055
9 *188:10 *743:17 0
10 *188:10 *990:90 0
11 *188:10 *1082:14 0
*RES
1 *1704:Y *188:10 43.1856 
2 *188:10 *1705:A2 40.9944 
*END

*D_NET *189 0.000289102
*CONN
*I *1708:A1 I *D sg13g2_a21oi_1
*I *1706:Y O *D sg13g2_nand2_1
*CAP
1 *1708:A1 0.000107019
2 *1706:Y 0.000107019
3 *1708:A1 *1708:B1 0
4 *1708:A1 *1028:96 0
5 *89:10 *1708:A1 7.50649e-05
*RES
1 *1706:Y *1708:A1 40.9328 
*END

*D_NET *190 0.000626604
*CONN
*I *1708:A2 I *D sg13g2_a21oi_1
*I *1707:Y O *D sg13g2_nand3_1
*CAP
1 *1708:A2 0.000238292
2 *1707:Y 0.000238292
3 *1708:A2 *1706:A 0
4 *1708:A2 *1707:B 2.20968e-05
5 *1708:A2 *1707:C 0.000127923
6 *1708:A2 *741:21 0
7 *1708:A2 *1028:96 0
*RES
1 *1707:Y *1708:A2 42.112 
*END

*D_NET *191 0.000567529
*CONN
*I *1712:A1 I *D sg13g2_a21oi_1
*I *1709:Y O *D sg13g2_nand2_1
*CAP
1 *1712:A1 0.000259808
2 *1709:Y 0.000259808
3 *1712:A1 *1709:A 0
4 *1712:A1 *1712:A2 4.79124e-05
5 *1712:A1 *1712:B1 0
6 *1712:A1 *479:14 0
7 *1712:A1 *989:42 0
8 *1712:A1 *1032:85 0
9 *1917:D *1712:A1 0
*RES
1 *1709:Y *1712:A1 42.2616 
*END

*D_NET *192 0.00734605
*CONN
*I *1875:CLK I *D sg13g2_dfrbp_1
*I *1879:CLK I *D sg13g2_dfrbp_1
*I *1881:CLK I *D sg13g2_dfrbp_1
*I *1880:CLK I *D sg13g2_dfrbp_1
*I *1878:CLK I *D sg13g2_dfrbp_1
*I *1710:X O *D sg13g2_buf_16
*CAP
1 *1875:CLK 0
2 *1879:CLK 0.000342394
3 *1881:CLK 3.6962e-05
4 *1880:CLK 0
5 *1878:CLK 0
6 *1710:X 0.000257748
7 *192:67 0.000184477
8 *192:43 0.000842314
9 *192:32 0.00120926
10 *192:15 0.00136652
11 *192:9 0.00106245
12 *1879:CLK results[108] 0.000590297
13 *1879:CLK *794:15 0
14 *192:9 *1597:B 0
15 *192:9 *1607:A 0
16 *192:15 *1597:B 0
17 *192:15 *380:10 0
18 *192:15 *793:9 0
19 *192:32 results[111] 0
20 *192:32 *1515:A1 0
21 *192:32 *1618:A 0
22 *192:32 *1808:A 0
23 *192:32 *1880:RESET_B 0
24 *192:32 *380:10 0
25 *192:32 *380:40 0
26 *192:32 *793:9 0
27 *192:32 *799:13 0.00028688
28 *192:32 *799:19 0.000209665
29 *192:43 results[108] 0.000242885
30 *192:43 *793:9 0
31 *192:43 *799:13 0
32 *192:43 *800:11 0
33 *192:43 *987:75 0.000308442
34 *192:67 *380:10 0
35 *192:67 *793:9 0
36 *1609:A1 *192:9 0
37 *56:8 *1879:CLK 0
38 *56:8 *192:43 0
39 *124:12 *192:43 0.000405761
*RES
1 *1710:X *192:9 2.5168 
2 *192:9 *192:15 25.1656 
3 *192:15 *1878:CLK 40 
4 *192:15 *192:32 26.6352 
5 *192:32 *1880:CLK 20 
6 *192:32 *192:43 24.5584 
7 *192:43 *1881:CLK 40.2992 
8 *192:43 *1879:CLK 43.4144 
9 *192:9 *192:67 41.7512 
10 *192:67 *1875:CLK 20 
*END

*D_NET *193 0.000340258
*CONN
*I *1712:A2 I *D sg13g2_a21oi_1
*I *1711:Y O *D sg13g2_nand3_1
*CAP
1 *1712:A2 0.000135124
2 *1711:Y 0.000135124
3 *1712:A2 *704:32 0
4 *1712:A2 *1024:118 2.20968e-05
5 *1712:A2 *1032:85 0
6 *1712:A1 *1712:A2 4.79124e-05
7 *1917:D *1712:A2 0
*RES
1 *1711:Y *1712:A2 41.1792 
*END

*D_NET *194 0.000571769
*CONN
*I *1715:A1 I *D sg13g2_a21oi_1
*I *1713:Y O *D sg13g2_nand2_1
*CAP
1 *1715:A1 0.000261928
2 *1713:Y 0.000261928
3 *1715:A1 *1713:A 0
4 *1715:A1 *1715:A2 4.79124e-05
5 *1715:A1 *1715:B1 0
6 *1715:A1 *1918:CLK 0
7 *1715:A1 *1032:35 0
8 *1700:C *1715:A1 0
9 *91:10 *1715:A1 0
*RES
1 *1713:Y *1715:A1 42.2616 
*END

*D_NET *195 0.000563218
*CONN
*I *1715:A2 I *D sg13g2_a21oi_1
*I *1714:Y O *D sg13g2_nand3_1
*CAP
1 *1715:A2 0.000246605
2 *1714:Y 0.000246605
3 *1715:A2 *1714:B 2.20968e-05
4 *1715:A2 *1715:B1 0
5 *1715:A1 *1715:A2 4.79124e-05
*RES
1 *1714:Y *1715:A2 42.3232 
*END

*D_NET *196 0.000956128
*CONN
*I *1718:A1 I *D sg13g2_a21oi_1
*I *1716:Y O *D sg13g2_nand2_1
*CAP
1 *1718:A1 0
2 *1716:Y 0.00044048
3 *196:10 0.00044048
4 *196:10 *1709:A 0
5 *196:10 *479:10 7.51684e-05
6 *196:10 *1028:55 0
7 *196:10 *1028:81 0
8 *1724:C *196:10 0
*RES
1 *1716:Y *196:10 43.7136 
2 *196:10 *1718:A1 40 
*END

*D_NET *197 0.000934925
*CONN
*I *1718:A2 I *D sg13g2_a21oi_1
*I *1717:Y O *D sg13g2_nand3_1
*CAP
1 *1718:A2 0.000459797
2 *1717:Y 0.000459797
3 *1718:A2 *1724:A 1.53311e-05
4 *1718:A2 *1725:A2 0
5 *1718:A2 *989:50 0
*RES
1 *1717:Y *1718:A2 43.8192 
*END

*D_NET *198 0.00643296
*CONN
*I *1863:CLK I *D sg13g2_dfrbp_1
*I *1864:CLK I *D sg13g2_dfrbp_1
*I *1902:CLK I *D sg13g2_dfrbp_1
*I *1882:CLK I *D sg13g2_dfrbp_1
*I *1872:CLK I *D sg13g2_dfrbp_1
*I *1719:X O *D sg13g2_buf_16
*CAP
1 *1863:CLK 0.000293224
2 *1864:CLK 2.96447e-05
3 *1902:CLK 0
4 *1882:CLK 1.26399e-05
5 *1872:CLK 0.000822026
6 *1719:X 0.000500812
7 *198:49 0.000689802
8 *198:38 0.000355967
9 *198:12 0.00089591
10 *198:10 0.000826542
11 *198:8 0.00127708
12 *1863:CLK *1104:10 0
13 *1872:CLK *1192:A2 0
14 *1872:CLK *678:22 0
15 *1872:CLK *988:21 0
16 *1872:CLK *988:38 0
17 *198:8 *1623:B1 0
18 *198:8 *1728:A 0
19 *198:8 *712:29 0.000537819
20 *198:10 *988:38 0
21 *198:12 *988:38 0
22 *198:38 *984:118 0
23 *198:38 *1142:10 4.78029e-05
24 *198:49 *988:38 0
25 *198:49 *988:59 0
26 *1624:B *1864:CLK 0
27 *1624:B *198:49 0
28 *1863:D *1863:CLK 0
29 *1864:D *1863:CLK 0
30 *1864:D *198:49 0
31 *1882:D *1863:CLK 0
32 *1882:D *1872:CLK 1.54556e-05
33 *1882:D *198:10 0
34 *1882:D *198:12 0
35 *1882:D *198:49 0
36 *1902:D *198:38 0.00012824
*RES
1 *1719:X *198:8 45.0776 
2 *198:8 *198:10 3.256 
3 *198:10 *198:12 0.5104 
4 *198:12 *1872:CLK 26.7848 
5 *198:12 *1882:CLK 20.2728 
6 *198:10 *198:38 43.74 
7 *198:38 *1902:CLK 20 
8 *198:8 *198:49 3.4056 
9 *198:49 *1864:CLK 20.4576 
10 *198:49 *1863:CLK 23.0272 
*END

*D_NET *199 0.000341641
*CONN
*I *1722:A1 I *D sg13g2_a21oi_1
*I *1720:Y O *D sg13g2_nand2_1
*CAP
1 *1722:A1 0.000170821
2 *1720:Y 0.000170821
3 *1678:A2 *1722:A1 0
4 *1920:D *1722:A1 0
*RES
1 *1720:Y *1722:A1 41.4784 
*END

*D_NET *200 0.000383654
*CONN
*I *1722:A2 I *D sg13g2_a21oi_1
*I *1721:Y O *D sg13g2_nand3_1
*CAP
1 *1722:A2 0
2 *1721:Y 0.000191827
3 *200:10 0.000191827
4 *200:10 *1721:A 0
5 *200:10 *1920:CLK 0
6 *200:10 *989:21 0
7 *1920:D *200:10 0
*RES
1 *1721:Y *200:10 41.6808 
2 *200:10 *1722:A2 40 
*END

*D_NET *201 0.000340805
*CONN
*I *1725:A1 I *D sg13g2_a21oi_1
*I *1723:Y O *D sg13g2_nand2_1
*CAP
1 *1725:A1 0.000109195
2 *1723:Y 0.000109195
3 *1725:A1 *1724:B 7.47893e-05
4 *1725:A1 *1725:A2 4.76267e-05
*RES
1 *1723:Y *1725:A1 41.1264 
*END

*D_NET *202 0.00077644
*CONN
*I *1725:A2 I *D sg13g2_a21oi_1
*I *1724:Y O *D sg13g2_nand3_1
*CAP
1 *1725:A2 0.000356679
2 *1724:Y 0.000356679
3 *1725:A2 *1718:B1 0
4 *1725:A2 *1724:B 0
5 *1725:A2 *1725:B1 1.54556e-05
6 *1718:A2 *1725:A2 0
7 *1725:A1 *1725:A2 4.76267e-05
8 *92:12 *1725:A2 0
*RES
1 *1724:Y *1725:A2 43.2736 
*END

*D_NET *203 0.000507715
*CONN
*I *1727:A1 I *D sg13g2_o21ai_1
*I *1726:Y O *D sg13g2_inv_1
*CAP
1 *1727:A1 3.26708e-05
2 *1726:Y 0.000171683
3 *203:10 0.000204354
4 *1727:A1 *1727:B1 0
5 *1727:A1 *984:120 9.90074e-05
6 *203:10 *1922:CLK 0
7 *203:10 *976:6 0
8 *203:10 *988:29 0
*RES
1 *1726:Y *203:10 41.5752 
2 *203:10 *1727:A1 40.3938 
*END

*D_NET *205 0.00648228
*CONN
*I *1192:A1 I *D sg13g2_a21o_1
*I *1181:A1 I *D sg13g2_a21o_1
*I *1167:A2 I *D sg13g2_a21o_1
*I *1168:A1 I *D sg13g2_a21o_1
*I *1164:Y O *D sg13g2_inv_2
*CAP
1 *1192:A1 0.000241345
2 *1181:A1 0.000607101
3 *1167:A2 0
4 *1168:A1 0
5 *1164:Y 0
6 *205:36 0.0018062
7 *205:22 0.000569656
8 *205:12 0.00111649
9 *205:4 0.00150459
10 *1181:A1 *991:10 0
11 *1181:A1 *1050:29 0
12 *1181:A1 *1132:8 0
13 *1192:A1 *986:38 0.00021075
14 *1192:A1 *1050:29 0
15 *1192:A1 *1112:10 0
16 *205:12 *1809:A 0
17 *205:12 *648:13 0
18 *205:22 *1809:A 0
19 *205:22 *1810:A 7.51291e-05
20 *205:22 *648:13 0
21 *205:22 *662:10 0
22 *205:22 *662:12 0
23 *205:22 *982:51 0.000275621
24 *205:22 *990:16 0
25 *205:22 *1092:8 0
26 *205:36 *986:10 0
27 *205:36 *986:38 0
28 *205:36 *1146:10 7.53965e-05
*RES
1 *1164:Y *205:4 20 
2 *205:4 *205:12 5.5 
3 *205:12 *205:22 45.8608 
4 *205:22 *1168:A1 20 
5 *205:12 *1167:A2 20 
6 *205:4 *205:36 29.8032 
7 *205:36 *1181:A1 46.1864 
8 *205:36 *1192:A1 42.42 
*END

*D_NET *208 0.000818794
*CONN
*I *1175:A1 I *D sg13g2_a21oi_1
*I *1169:Y O *D sg13g2_inv_1
*CAP
1 *1175:A1 0.000409397
2 *1169:Y 0.000409397
3 *1175:A1 *1169:A 0
4 *1175:A1 *984:66 0
5 *1175:A1 *984:77 0
6 *1627:B *1175:A1 0
7 *10:10 *1175:A1 0
*RES
1 *1169:Y *1175:A1 43.784 
*END

*D_NET *209 0.00423293
*CONN
*I *1175:A2 I *D sg13g2_a21oi_1
*I *1779:A I *D sg13g2_buf_2
*I *1631:A1 I *D sg13g2_a21oi_1
*I *1170:Y O *D sg13g2_nand2_1
*CAP
1 *1175:A2 0
2 *1779:A 0
3 *1631:A1 3.82983e-05
4 *1170:Y 0.000504575
5 *209:35 0.000480818
6 *209:27 0.001092
7 *209:14 0.000649475
8 *209:12 0.000504575
9 *1631:A1 *984:66 0
10 *209:12 *974:15 0.000569641
11 *209:12 *974:27 0
12 *209:27 *1627:A 0
13 *209:27 *984:66 0
14 *209:27 *991:79 0
15 *209:35 *1786:A 0
16 *209:35 *1020:8 0
17 *209:35 *1020:12 0
18 *209:35 *1031:10 0
19 *209:35 *1031:107 0
20 *1627:B *209:27 0
21 *1631:A2 *209:27 0
22 *1883:D *209:12 0.000393551
23 *1884:D *209:12 0
24 *131:10 *209:12 0
25 *131:10 *209:27 0
26 *131:27 *209:12 0
*RES
1 *1170:Y *209:12 45.4912 
2 *209:12 *209:14 20 
3 *209:14 *1631:A1 20.2992 
4 *209:14 *209:27 5.28 
5 *209:27 *209:35 43.971 
6 *209:35 *1779:A 20 
7 *209:27 *1175:A2 20 
*END

*D_NET *214 0.00265256
*CONN
*I *1522:B1 I *D sg13g2_a21o_1
*I *1525:A1 I *D sg13g2_a21oi_1
*I *1180:A1 I *D sg13g2_a21oi_1
*I *1176:Y O *D sg13g2_inv_1
*CAP
1 *1522:B1 0.000378546
2 *1525:A1 0
3 *1180:A1 0.000164678
4 *1176:Y 2.56551e-05
5 *214:22 0.000675364
6 *214:8 0.000914887
7 *1180:A1 *1784:A 0
8 *1180:A1 *228:31 2.81734e-05
9 *1180:A1 *542:10 2.20968e-05
10 *1180:A1 *649:16 2.21754e-05
11 *1522:B1 *1860:CLK 0
12 *1522:B1 *215:18 0
13 *1522:B1 *538:8 0
14 *1522:B1 *539:8 7.47893e-05
15 *1522:B1 *984:31 0
16 *214:22 *1524:B 0.000148902
17 *214:22 *1853:CLK 0
18 *214:22 *215:18 0
19 *214:22 *226:10 0
20 *214:22 *649:16 1.54556e-05
21 *214:22 *649:23 0.000181839
22 *214:22 *649:32 0
23 *214:22 *993:57 0
24 *1853:D *1180:A1 0
25 *1853:D *214:22 0
*RES
1 *1176:Y *214:8 40.1936 
2 *214:8 *214:22 25.0424 
3 *214:22 *1180:A1 21.5048 
4 *214:22 *1525:A1 20 
5 *214:8 *1522:B1 43.7664 
*END

*D_NET *215 0.00456512
*CONN
*I *1528:A1 I *D sg13g2_a21oi_1
*I *1564:B I *D sg13g2_nand3_1
*I *1780:A I *D sg13g2_buf_2
*I *1177:Y O *D sg13g2_nand2_1
*CAP
1 *1528:A1 7.46325e-05
2 *1564:B 7.55301e-05
3 *1780:A 0.000510954
4 *1177:Y 0.000503344
5 *215:18 0.00131556
6 *215:14 0.00130705
7 *1528:A1 *1528:A2 0.000181611
8 *1528:A1 *982:43 0
9 *1564:B *1564:C 3.74279e-05
10 *1564:B *539:8 4.14315e-05
11 *1564:B *984:31 0
12 *1780:A *1524:B 0
13 *1780:A *1860:CLK 0
14 *1780:A *539:25 0.000307399
15 *1780:A *660:10 0
16 *1780:A *982:73 0
17 *1780:A *998:10 0
18 *1780:A *1029:12 0
19 *215:14 *1195:B 0
20 *215:14 *1810:A 0
21 *215:14 *982:51 0
22 *215:14 *993:16 0
23 *215:18 *1524:B 0
24 *215:18 *1527:B 6.49365e-05
25 *215:18 *228:8 0
26 *215:18 *541:10 0.000145243
27 *215:18 *542:10 0
28 *215:18 *649:10 0
29 *215:18 *993:16 0
30 *1522:B1 *215:18 0
31 *25:10 *215:14 0
32 *214:22 *215:18 0
*RES
1 *1177:Y *215:14 44.576 
2 *215:14 *215:18 7.04 
3 *215:18 *1780:A 44.8686 
4 *215:18 *1564:B 40.737 
5 *215:14 *1528:A1 40.9328 
*END

*D_NET *218 0.00176
*CONN
*I *1186:A1 I *D sg13g2_a21oi_1
*I *1182:Y O *D sg13g2_inv_1
*CAP
1 *1186:A1 0.000497227
2 *1182:Y 0.000194656
3 *218:10 0.000691883
4 *218:10 *1182:A 4.83915e-05
5 *218:10 *383:10 0
6 *218:10 *679:8 0
7 *1873:CLK *1186:A1 0
8 *1873:D *1186:A1 0.000181839
9 *20:10 *218:10 0.000146003
*RES
1 *1182:Y *218:10 41.9448 
2 *218:10 *1186:A1 44.5232 
*END

*D_NET *219 0.00440595
*CONN
*I *1608:B I *D sg13g2_nand3_1
*I *1598:B I *D sg13g2_nand3_1
*I *1781:A I *D sg13g2_buf_2
*I *1183:Y O *D sg13g2_nand2_1
*CAP
1 *1608:B 0.000737236
2 *1598:B 0.000358479
3 *1781:A 0
4 *1183:Y 0.00077607
5 *219:21 0.00125502
6 *219:10 0.000935374
7 *1598:B *984:166 0
8 *1598:B *984:179 0
9 *1608:B *1607:A 0
10 *1608:B *1608:C 4.79124e-05
11 *1608:B *792:19 0
12 *1608:B *987:29 0
13 *1608:B *1000:51 3.86694e-05
14 *1608:B *1026:42 0
15 *1608:B *1026:50 0
16 *1608:B *1026:52 0
17 *219:10 *1183:A 0
18 *219:10 *1623:A1 0.000193481
19 *219:10 *1623:B1 0
20 *219:10 *380:10 0
21 *219:10 *712:29 0
22 *219:10 *984:166 0
23 *219:10 *987:10 0
24 *219:10 *987:25 0
25 *219:10 *988:38 0
26 *219:21 *1026:52 0
27 *1599:A2 *1598:B 2.21365e-05
28 *1599:A2 *219:10 0
29 *1609:A2 *1608:B 4.15789e-05
*RES
1 *1183:Y *219:10 27.6758 
2 *219:10 *1781:A 20 
3 *219:10 *219:21 21.5664 
4 *219:21 *1598:B 42.695 
5 *219:21 *1608:B 46.8178 
*END

*D_NET *222 0.00330022
*CONN
*I *1678:B1 I *D sg13g2_a21o_1
*I *1191:A1 I *D sg13g2_a21oi_1
*I *1683:A1 I *D sg13g2_a21oi_1
*I *1187:Y O *D sg13g2_inv_1
*CAP
1 *1678:B1 0.000139606
2 *1191:A1 0
3 *1683:A1 0.000331726
4 *1187:Y 0.000632762
5 *222:14 0.000350208
6 *222:12 0.000158088
7 *222:10 0.000632762
8 *1678:B1 *1191:A2 5.30323e-05
9 *1678:B1 *990:46 0
10 *1678:B1 *1028:14 0.000143669
11 *1683:A1 *1683:A2 7.53575e-05
12 *1683:A1 *990:46 7.53182e-05
13 *1683:A1 *990:56 6.90706e-05
14 *1683:A1 *1028:14 2.20968e-05
15 *1683:A1 *1028:24 0.000251652
16 *1683:A1 *1032:23 0
17 *222:10 *1678:A1 0
18 *222:10 *1913:CLK 0
19 *222:10 *979:8 0.000275935
20 *222:10 *990:46 0
21 *222:14 *1191:A2 1.38105e-05
22 *222:14 *1028:14 7.51291e-05
23 *168:8 *222:10 0
*RES
1 *1187:Y *222:10 45.7728 
2 *222:10 *222:12 20 
3 *222:12 *222:14 0.2992 
4 *222:14 *1683:A1 23.1944 
5 *222:14 *1191:A1 20 
6 *222:12 *1678:B1 21.4784 
*END

*D_NET *223 0.000612203
*CONN
*I *1782:A I *D sg13g2_buf_2
*I *1188:Y O *D sg13g2_nand2_1
*CAP
1 *1782:A 2.64557e-05
2 *1188:Y 0.000139614
3 *223:8 0.00016607
4 *1782:A *1913:CLK 0.000140032
5 *1782:A *528:6 0.000140032
6 *223:8 *1748:A 0
7 *223:8 *990:25 0
8 *223:8 *990:46 0
*RES
1 *1188:Y *223:8 41.1968 
2 *223:8 *1782:A 40.5566 
*END

*D_NET *226 0.00238683
*CONN
*I *1194:B_N I *D sg13g2_nor2b_1
*I *1530:S I *D sg13g2_mux2_1
*I *1193:Y O *D sg13g2_nor3_1
*CAP
1 *1194:B_N 0.000418527
2 *1530:S 0
3 *1193:Y 7.84044e-05
4 *226:20 0.000437069
5 *226:14 0.000939886
6 *226:10 0.000162695
7 *1194:B_N *1194:A 0
8 *1194:B_N *1197:B 0
9 *1194:B_N *1521:C 7.51291e-05
10 *1194:B_N *1534:A 0
11 *1194:B_N *651:12 0
12 *226:10 *538:8 0
13 *226:14 *1176:A 0
14 *226:14 *1521:A 7.51688e-05
15 *226:14 *1521:B 7.53572e-05
16 *226:14 *1521:C 2.20968e-05
17 *226:20 *1521:C 8.03968e-05
18 *226:20 *1530:A0 0
19 *226:20 *538:8 0
20 *226:20 *651:27 0
21 *1193:C *226:14 2.20968e-05
22 *214:22 *226:10 0
*RES
1 *1193:Y *226:10 40.7568 
2 *226:10 *226:14 20.9328 
3 *226:14 *226:20 43.2296 
4 *226:20 *1530:S 20 
5 *226:14 *1194:B_N 23.6168 
*END

*D_NET *227 0.00228698
*CONN
*I *1533:S I *D sg13g2_mux2_1
*I *1535:B I *D sg13g2_nand2b_1
*I *1199:A I *D sg13g2_nand3_1
*I *1194:Y O *D sg13g2_nor2b_1
*CAP
1 *1533:S 0
2 *1535:B 0.000144071
3 *1199:A 0
4 *1194:Y 0.000129076
5 *227:20 0.000446418
6 *227:12 0.000764257
7 *227:8 0.000302844
8 *1535:B *1533:A0 0
9 *1535:B *1533:A1 0.000128161
10 *1535:B *1535:A_N 6.18224e-06
11 *1535:B *547:10 5.30323e-05
12 *1535:B *651:8 0
13 *1535:B *653:16 0
14 *1535:B *980:10 0
15 *227:8 *1534:A 0
16 *227:12 *1533:A0 6.19104e-05
17 *227:12 *1533:A1 0.000128161
18 *227:12 *1534:A 0
19 *227:12 *547:10 7.51291e-05
20 *227:12 *651:8 0
21 *227:20 *1860:CLK 0
22 *227:20 *231:12 0
23 *227:20 *546:10 0
24 *227:20 *547:10 4.77421e-05
25 *1846:D *1535:B 0
*RES
1 *1194:Y *227:8 21.2056 
2 *227:8 *227:12 1.628 
3 *227:12 *227:20 43.3836 
4 *227:20 *1199:A 20 
5 *227:12 *1535:B 21.5224 
6 *227:8 *1533:S 20 
*END

*D_NET *228 0.00355849
*CONN
*I *1197:B I *D sg13g2_nor2_2
*I *1525:B1 I *D sg13g2_a21oi_1
*I *1784:A I *D sg13g2_buf_2
*I *1195:X O *D sg13g2_and2_1
*CAP
1 *1197:B 0.00036538
2 *1525:B1 0
3 *1784:A 0.000265953
4 *1195:X 0.000234003
5 *228:31 8.73863e-05
6 *228:12 0.000787201
7 *228:10 0.000799241
8 *228:8 0.000234003
9 *1197:B *1521:B 0.000394346
10 *1197:B *1521:C 0
11 *1197:B *1527:A 0
12 *1197:B *649:32 0
13 *1784:A *993:32 0
14 *228:8 *1527:B 0
15 *228:8 *541:10 0
16 *228:8 *650:10 0
17 *228:8 *650:14 0
18 *228:12 *1526:A1 0
19 *228:12 *1527:A 0
20 *228:12 *541:10 0.000234643
21 *228:12 *542:10 0.000128161
22 *228:12 *649:23 0
23 *228:12 *649:32 0
24 *228:31 *1180:A2 0
25 *228:31 *993:32 0
26 *1180:A1 *1784:A 0
27 *1180:A1 *228:31 2.81734e-05
28 *1194:B_N *1197:B 0
29 *1853:D *1784:A 0
30 *1853:D *228:31 0
31 *215:18 *228:8 0
*RES
1 *1195:X *228:8 42.3056 
2 *228:8 *228:10 20 
3 *228:10 *228:12 3.8896 
4 *228:12 *1784:A 22.343 
5 *228:12 *228:31 40.7546 
6 *228:31 *1525:B1 20 
7 *228:10 *1197:B 23.8984 
*END

*D_NET *230 0.00444609
*CONN
*I *1534:A I *D sg13g2_and2_1
*I *1531:A I *D sg13g2_and2_1
*I *1199:B I *D sg13g2_nand3_1
*I *1536:B I *D sg13g2_and3_1
*I *1197:Y O *D sg13g2_nor2_2
*CAP
1 *1534:A 0.000578682
2 *1531:A 0
3 *1199:B 1.52165e-05
4 *1536:B 0
5 *1197:Y 0
6 *230:28 0.00038375
7 *230:18 0.000827286
8 *230:12 0.000844268
9 *230:6 0.000994631
10 *1534:A *1533:A0 0
11 *1534:A *231:12 7.51291e-05
12 *1534:A *650:14 0
13 *1534:A *993:57 0
14 *230:12 *1522:A1 7.50795e-05
15 *230:12 *1530:A0 0
16 *230:12 *1860:CLK 0
17 *230:12 *231:48 0.000144851
18 *230:12 *544:10 0.000144351
19 *230:12 *993:57 0
20 *230:18 *1531:B 7.47893e-05
21 *230:18 *1860:CLK 0
22 *230:18 *231:25 0
23 *230:18 *984:31 0
24 *230:28 *1860:CLK 0
25 *230:28 *546:10 0.000288053
26 *1194:B_N *1534:A 0
27 *227:8 *1534:A 0
28 *227:12 *1534:A 0
*RES
1 *1197:Y *230:6 40 
2 *230:6 *230:12 23.608 
3 *230:12 *230:18 4.0128 
4 *230:18 *230:28 44.0128 
5 *230:28 *1536:B 20 
6 *230:18 *1199:B 20.165 
7 *230:12 *1531:A 20 
8 *230:6 *1534:A 45.8784 
*END

*D_NET *231 0.00454808
*CONN
*I *1529:B I *D sg13g2_nor2_1
*I *1522:A1 I *D sg13g2_a21o_1
*I *1199:C I *D sg13g2_nand3_1
*I *1198:Y O *D sg13g2_nor2_1
*CAP
1 *1529:B 0
2 *1522:A1 0.000355406
3 *1199:C 9.75301e-05
4 *1198:Y 0.000633273
5 *231:48 0.000165742
6 *231:25 0.000879839
7 *231:12 0.00108949
8 *1522:A1 *1522:A2 4.83931e-05
9 *1522:A1 *1530:A0 0
10 *1522:A1 *1860:CLK 0
11 *231:12 *1533:A0 0
12 *231:12 *1535:A_N 0
13 *231:12 *547:10 0
14 *231:25 *984:31 0.000961243
15 *231:48 *1853:CLK 2.20968e-05
16 *231:48 *1085:8 0
17 *1534:A *231:12 7.51291e-05
18 *1846:D *231:12 0
19 *227:20 *231:12 0
20 *230:12 *1522:A1 7.50795e-05
21 *230:12 *231:48 0.000144851
22 *230:18 *231:25 0
*RES
1 *1198:Y *231:12 45.4384 
2 *231:12 *1199:C 40.8272 
3 *231:12 *231:25 23.8896 
4 *231:25 *1522:A1 23.2912 
5 *231:25 *231:48 41.3376 
6 *231:48 *1529:B 20 
*END

*D_NET *232 0.00705502
*CONN
*I *1571:B1 I *D sg13g2_o21ai_1
*I *1266:B I *D sg13g2_nand2_1
*I *1269:B I *D sg13g2_nand2_1
*I *1270:A1 I *D sg13g2_o21ai_1
*I *1265:A1 I *D sg13g2_o21ai_1
*I *1264:B I *D sg13g2_nand2_1
*I *1268:S I *D sg13g2_mux2_1
*I *1267:A1 I *D sg13g2_o21ai_1
*I *1199:Y O *D sg13g2_nand3_1
*CAP
1 *1571:B1 5.10875e-05
2 *1266:B 3.08503e-05
3 *1269:B 0
4 *1270:A1 0
5 *1265:A1 1.74935e-05
6 *1264:B 6.26464e-05
7 *1268:S 0.000215861
8 *1267:A1 3.71194e-05
9 *1199:Y 0.000791438
10 *232:93 0.000242169
11 *232:74 0.000312251
12 *232:43 0.000437806
13 *232:41 0.000510885
14 *232:37 0.000810132
15 *232:20 0.000964112
16 *232:14 0.000876955
17 *232:10 0.00116759
18 *1264:B *1265:B1 0
19 *1264:B *1265:A2 0
20 *1266:B *1267:B1 0
21 *1267:A1 *1267:A2 3.54414e-05
22 *1268:S *1268:A0 0
23 *232:10 *1860:CLK 0
24 *232:10 *1862:CLK 0
25 *232:10 *981:28 0
26 *232:10 *984:31 0
27 *232:10 *1086:10 0
28 *232:10 *1087:12 0
29 *232:14 *981:28 0
30 *232:20 *1267:B1 0
31 *232:20 *981:28 0
32 *232:20 *1086:10 0
33 *232:20 *1089:10 0
34 *232:37 *1270:A2 0
35 *232:37 *265:8 0
36 *232:37 *274:10 0
37 *232:37 *981:28 0
38 *232:41 *274:10 0
39 *232:41 *292:10 0
40 *232:43 *291:10 0
41 *232:43 *297:8 0
42 *232:74 *1270:A2 0
43 *232:93 *1270:B1 0.000411094
44 *232:93 *1270:A2 0
45 *232:93 *981:41 8.00835e-05
46 *1848:D *1264:B 0
47 *32:8 *232:37 0
*RES
1 *1199:Y *232:10 46.6704 
2 *232:10 *232:14 23.4144 
3 *232:14 *232:20 25.192 
4 *232:20 *1267:A1 40.44 
5 *232:20 *232:37 24.136 
6 *232:37 *232:41 23.4144 
7 *232:41 *232:43 1.5664 
8 *232:43 *1268:S 42.2352 
9 *232:43 *1264:B 40.7216 
10 *232:41 *1265:A1 40.1408 
11 *232:37 *232:74 0.605 
12 *232:74 *1270:A1 20 
13 *232:74 *232:93 42.9854 
14 *232:93 *1269:B 20 
15 *232:14 *1266:B 20.2992 
16 *232:10 *1571:B1 40.5104 
*END

*D_NET *237 0.00389387
*CONN
*I *1205:B1 I *D sg13g2_o21ai_1
*I *1240:A1 I *D sg13g2_a21oi_1
*I *1204:Y O *D sg13g2_nor2_1
*CAP
1 *1205:B1 0
2 *1240:A1 0.000791532
3 *1204:Y 0
4 *237:14 0.00128666
5 *237:6 0.000495127
6 *1240:A1 *1246:A1 7.50649e-05
7 *1240:A1 *240:43 0
8 *1240:A1 *260:14 2.20326e-05
9 *1240:A1 *263:10 0
10 *1240:A1 *263:27 0
11 *1240:A1 *271:16 8.00835e-05
12 *1240:A1 *272:24 0
13 *1240:A1 *281:10 4.8056e-05
14 *1240:A1 *290:12 0.000210209
15 *1240:A1 *995:39 0
16 *1205:A2 *1240:A1 0.00017595
17 *1205:A2 *237:14 0
18 *1227:A *1240:A1 0.000565855
19 *12:29 *1240:A1 0.000143296
20 *14:31 *1240:A1 0
21 *14:31 *237:14 0
*RES
1 *1204:Y *237:6 40 
2 *237:6 *237:14 43.6872 
3 *237:14 *1240:A1 47.3216 
4 *237:14 *1205:B1 40 
*END

*D_NET *238 0.000441436
*CONN
*I *1207:A0 I *D sg13g2_mux2_2
*I *1205:Y O *D sg13g2_o21ai_1
*CAP
1 *1207:A0 0.000209735
2 *1205:Y 0.000209735
3 *1207:A0 *1207:A1 0
4 *1207:A0 *1207:S 2.19663e-05
5 *1207:A0 *1230:A2 0
6 *1205:A2 *1207:A0 0
*RES
1 *1205:Y *1207:A0 42.0416 
*END

*D_NET *240 0.00891969
*CONN
*I *1243:A I *D sg13g2_inv_1
*I *1211:A1 I *D sg13g2_o21ai_1
*I *1212:A1 I *D sg13g2_o21ai_1
*I *1236:A1 I *D sg13g2_a22oi_1
*I *1268:A0 I *D sg13g2_mux2_1
*I *1249:A2 I *D sg13g2_o21ai_1
*I *1248:A I *D sg13g2_nand2_1
*I *1207:X O *D sg13g2_mux2_2
*CAP
1 *1243:A 0.000194196
2 *1211:A1 4.48355e-05
3 *1212:A1 4.24932e-05
4 *1236:A1 1.94595e-05
5 *1268:A0 0.000495084
6 *1249:A2 0.000125167
7 *1248:A 0.000255542
8 *1207:X 2.46863e-05
9 *240:66 0.00016176
10 *240:60 0.000380328
11 *240:49 0.000637853
12 *240:43 0.00149489
13 *240:23 0.000620251
14 *240:21 0.00107896
15 *240:8 0.000460665
16 *1211:A1 *1211:B1 0
17 *1211:A1 *1211:A2 4.59751e-05
18 *1212:A1 *242:12 0
19 *1236:A1 *1238:B1 4.8613e-05
20 *1236:A1 *267:50 0
21 *1243:A *1233:S 7.51688e-05
22 *1243:A *266:10 0
23 *1243:A *268:6 0
24 *1248:A *281:10 0
25 *1248:A *960:10 0
26 *1249:A2 *1207:A1 0
27 *1249:A2 *1230:A2 0
28 *1249:A2 *263:10 0
29 *1249:A2 *282:10 7.51291e-05
30 *1268:A0 *1268:A1 4.79124e-05
31 *1268:A0 *282:10 7.51688e-05
32 *240:21 *281:10 0
33 *240:43 *1241:A2 0
34 *240:43 *1263:B1 0.000228013
35 *240:43 *263:10 0.000243533
36 *240:43 *263:27 0.000889763
37 *240:43 *266:10 0
38 *240:43 *269:12 0
39 *240:43 *271:16 0
40 *240:43 *275:12 0.000211
41 *240:43 *277:8 0.00021019
42 *240:43 *281:10 0
43 *240:43 *282:10 0.000634133
44 *240:49 *263:27 0
45 *240:49 *995:50 0
46 *240:60 *242:42 0
47 *1240:A1 *240:43 0
48 *1249:A1 *1249:A2 0
49 *1268:S *1268:A0 0
50 *9:6 *1212:A1 9.89225e-05
51 *9:12 *240:60 0
*RES
1 *1207:X *240:8 40.2992 
2 *240:8 *1248:A 42.288 
3 *240:8 *240:21 1.5664 
4 *240:21 *240:23 20 
5 *240:23 *1249:A2 21.1792 
6 *240:23 *1268:A0 25.4032 
7 *240:21 *240:43 8.9584 
8 *240:43 *240:49 43.4672 
9 *240:49 *1236:A1 40.1936 
10 *240:49 *240:60 1.5664 
11 *240:60 *240:66 41.144 
12 *240:66 *1212:A1 40.3938 
13 *240:60 *1211:A1 40.4818 
14 *240:43 *1243:A 41.8656 
*END

*D_NET *242 0.00430115
*CONN
*I *1236:A2 I *D sg13g2_a22oi_1
*I *1211:A2 I *D sg13g2_o21ai_1
*I *1212:A2 I *D sg13g2_o21ai_1
*I *1209:Y O *D sg13g2_nor3_2
*CAP
1 *1236:A2 0
2 *1211:A2 0.000157935
3 *1212:A2 2.3945e-05
4 *1209:Y 0.00135061
5 *242:42 0.000298723
6 *242:14 0.000247323
7 *242:12 0.00171478
8 *1211:A2 *1211:B1 4.8786e-05
9 *1211:A2 *1233:A0 0
10 *1211:A2 *1233:A1 0.000155
11 *242:12 *1209:C 0
12 *242:12 *1238:B1 0
13 *242:12 *1552:B 0
14 *242:12 *1553:A 0
15 *242:12 *1554:B1 0
16 *242:12 *561:10 0
17 *242:12 *562:10 0
18 *242:12 *656:57 0
19 *242:42 *1233:A1 0
20 *242:42 *1238:B1 8.89396e-05
21 *242:42 *268:16 0.000154187
22 *1211:A1 *1211:A2 4.59751e-05
23 *1212:B1 *1211:A2 0
24 *1212:B1 *1212:A2 1.49483e-05
25 *1212:A1 *242:12 0
26 *1857:D *242:12 0
27 *240:60 *242:42 0
*RES
1 *1209:Y *242:12 31.704 
2 *242:12 *242:14 0.6424 
3 *242:14 *1212:A2 20.2728 
4 *242:14 *1211:A2 21.6896 
5 *242:12 *242:42 42.5366 
6 *242:42 *1236:A2 20 
*END

*D_NET *244 0.000663097
*CONN
*I *1233:A0 I *D sg13g2_mux2_1
*I *1211:Y O *D sg13g2_o21ai_1
*CAP
1 *1233:A0 0.000143362
2 *1211:Y 0.000143362
3 *1233:A0 *1211:B1 2.21754e-05
4 *1233:A0 *1233:A1 0.000354197
5 *1211:A2 *1233:A0 0
*RES
1 *1211:Y *1233:A0 41.628 
*END

*D_NET *245 0.00110758
*CONN
*I *1233:A1 I *D sg13g2_mux2_1
*I *1212:Y O *D sg13g2_o21ai_1
*CAP
1 *1233:A1 0.000299191
2 *1212:Y 0.000299191
3 *1233:A1 *1211:B1 0
4 *1233:A1 *1233:S 0
5 *1233:A1 *268:6 0
6 *1233:A1 *268:16 0
7 *1211:A2 *1233:A1 0.000155
8 *1233:A0 *1233:A1 0.000354197
9 *242:42 *1233:A1 0
*RES
1 *1212:Y *1233:A1 42.8952 
*END

*D_NET *246 5.34139e-05
*CONN
*I *1216:A1 I *D sg13g2_o21ai_1
*I *1213:Y O *D sg13g2_inv_1
*CAP
1 *1216:A1 2.6707e-05
2 *1213:Y 2.6707e-05
3 *1216:A1 *1214:A1 0
4 *1216:A1 *1215:A 0
*RES
1 *1213:Y *1216:A1 40.2882 
*END

*D_NET *247 0.000969472
*CONN
*I *1216:A2 I *D sg13g2_o21ai_1
*I *1214:X O *D sg13g2_mux2_1
*CAP
1 *1216:A2 0
2 *1214:X 0.000332589
3 *247:10 0.000332589
4 *247:10 *1214:A0 0.000181422
5 *247:10 *1247:A 7.51291e-05
6 *247:10 *249:8 0
7 *247:10 *902:14 0
8 *247:10 *996:39 4.77421e-05
9 *247:10 *997:46 0
10 *1213:A *247:10 0
*RES
1 *1214:X *247:10 43.0536 
2 *247:10 *1216:A2 40 
*END

*D_NET *248 0.000356398
*CONN
*I *1216:B1 I *D sg13g2_o21ai_1
*I *1215:Y O *D sg13g2_inv_1
*CAP
1 *1216:B1 0.000178199
2 *1215:Y 0.000178199
3 *1216:B1 *1215:A 0
4 *1216:B1 *1248:B 0
*RES
1 *1215:Y *1216:B1 41.6896 
*END

*D_NET *249 0.00278124
*CONN
*I *1225:A1 I *D sg13g2_a221oi_1
*I *1216:Y O *D sg13g2_o21ai_1
*CAP
1 *1225:A1 0.000137999
2 *1216:Y 0.000736973
3 *249:8 0.000874972
4 *1225:A1 *1225:B2 0
5 *1225:A1 *1225:A2 1.54556e-05
6 *1225:A1 *1256:C 0.000181194
7 *1225:A1 *258:14 0.000181383
8 *249:8 *1256:B 0
9 *249:8 *254:10 0
10 *249:8 *254:25 0
11 *249:8 *254:38 0.000238667
12 *249:8 *661:88 0
13 *249:8 *902:14 0
14 *249:8 *996:39 0
15 *249:8 *997:50 0.000242756
16 *249:8 *997:70 9.67087e-05
17 *12:16 *1225:A1 7.51291e-05
18 *247:10 *249:8 0
*RES
1 *1216:Y *249:8 45.8168 
2 *249:8 *1225:A1 41.7864 
*END

*D_NET *250 0.000400044
*CONN
*I *1220:A1 I *D sg13g2_o21ai_1
*I *1217:X O *D sg13g2_or4_1
*CAP
1 *1220:A1 0.000147963
2 *1217:X 0.000147963
3 *1220:A1 *1220:A2 8.86624e-05
4 *1220:A1 *1225:B2 0
5 *1220:A1 *661:16 1.54556e-05
6 *1218:B *1220:A1 0
*RES
1 *1217:X *1220:A1 41.5488 
*END

*D_NET *251 0.000341156
*CONN
*I *1220:A2 I *D sg13g2_o21ai_1
*I *1218:Y O *D sg13g2_nor2_1
*CAP
1 *1220:A2 0.000107431
2 *1218:Y 0.000107431
3 *1220:A2 *661:16 0
4 *1218:B *1220:A2 3.7631e-05
5 *1220:A1 *1220:A2 8.86624e-05
6 *12:16 *1220:A2 0
*RES
1 *1218:Y *1220:A2 40.9944 
*END

*D_NET *252 0.000504175
*CONN
*I *1220:B1 I *D sg13g2_o21ai_1
*I *1219:Y O *D sg13g2_a21oi_1
*CAP
1 *1220:B1 0
2 *1219:Y 0.000130499
3 *252:8 0.000130499
4 *252:8 *1219:B1 4.80554e-05
5 *252:8 *661:20 0.000195122
6 *252:8 *998:16 0
*RES
1 *1219:Y *252:8 41.3816 
2 *252:8 *1220:B1 40 
*END

*D_NET *253 0.00121261
*CONN
*I *1225:A2 I *D sg13g2_a221oi_1
*I *1220:Y O *D sg13g2_o21ai_1
*CAP
1 *1225:A2 0.000246745
2 *1220:Y 0.000246745
3 *1225:A2 *1225:B2 0.000128201
4 *1225:A2 *1252:A1 0.0004473
5 *1225:A2 *258:14 0
6 *1225:A2 *996:16 0.000128161
7 *1225:A1 *1225:A2 1.54556e-05
8 *12:16 *1225:A2 0
*RES
1 *1220:Y *1225:A2 42.8292 
*END

*D_NET *254 0.00191924
*CONN
*I *1252:B1 I *D sg13g2_o21ai_1
*I *1230:B1 I *D sg13g2_a21oi_1
*I *1222:A1 I *D sg13g2_a21oi_1
*I *1221:Y O *D sg13g2_inv_1
*CAP
1 *1252:B1 0
2 *1230:B1 0
3 *1222:A1 6.14845e-05
4 *1221:Y 0.000200642
5 *254:38 0.000277431
6 *254:25 0.000370384
7 *254:10 0.00035508
8 *254:10 *1228:A1 4.8613e-05
9 *254:10 *661:39 0
10 *254:10 *996:39 7.98231e-05
11 *254:10 *999:20 4.84434e-05
12 *254:25 *661:39 0
13 *254:38 *1256:B 0.000238667
14 *12:29 *254:38 0
15 *249:8 *254:10 0
16 *249:8 *254:25 0
17 *249:8 *254:38 0.000238667
*RES
1 *1221:Y *254:10 41.5752 
2 *254:10 *1222:A1 40.5104 
3 *254:10 *254:25 20.726 
4 *254:25 *1230:B1 20 
5 *254:25 *254:38 42.4772 
6 *254:38 *1252:B1 20 
*END

*D_NET *255 0.00036987
*CONN
*I *1225:B1 I *D sg13g2_a221oi_1
*I *1222:Y O *D sg13g2_a21oi_1
*CAP
1 *1225:B1 0
2 *1222:Y 0.000184935
3 *255:8 0.000184935
4 *255:8 *257:10 0
5 *255:8 *661:39 0
6 *255:8 *996:20 0
7 *255:8 *999:58 0
8 *255:8 *999:75 0
*RES
1 *1222:Y *255:8 41.5664 
2 *255:8 *1225:B1 40 
*END

*D_NET *256 0.0043102
*CONN
*I *1270:A2 I *D sg13g2_o21ai_1
*I *1231:A2 I *D sg13g2_a21o_1
*I *1253:B I *D sg13g2_nor2_1
*I *1224:D I *D sg13g2_nor4_1
*I *1223:Y O *D sg13g2_nor2_2
*CAP
1 *1270:A2 0.000875965
2 *1231:A2 0
3 *1253:B 0
4 *1224:D 0.000147573
5 *1223:Y 0
6 *256:36 0.00114132
7 *256:25 0.00054639
8 *256:4 0.000428604
9 *1224:D *1239:B 0
10 *1224:D *1254:B1 0
11 *1224:D *657:18 0
12 *1224:D *661:107 3.75524e-05
13 *1224:D *995:25 0.000128201
14 *1270:A2 *1231:A1 0.000127784
15 *1270:A2 *1232:B 0
16 *1270:A2 *1241:A2 0
17 *1270:A2 *1242:A2 0
18 *1270:A2 *1242:B1 0
19 *1270:A2 *1245:B 0.000101149
20 *1270:A2 *1246:B1 1.52019e-05
21 *1270:A2 *1263:A2 0
22 *1270:A2 *260:14 0
23 *1270:A2 *269:12 0
24 *1270:A2 *274:10 0.000234832
25 *256:25 *1231:B1 0
26 *256:25 *267:12 0.000234604
27 *256:25 *657:12 4.77421e-05
28 *256:25 *657:18 0.00024328
29 *256:25 *995:25 0
30 *256:36 *1231:A1 0
31 *256:36 *1231:B1 0
32 *256:36 *272:24 0
33 *232:37 *1270:A2 0
34 *232:74 *1270:A2 0
35 *232:93 *1270:A2 0
*RES
1 *1223:Y *256:4 20 
2 *256:4 *1224:D 21.3728 
3 *256:4 *256:25 42.772 
4 *256:25 *1253:B 20 
5 *256:25 *256:36 2.2176 
6 *256:36 *1231:A2 20 
7 *256:36 *1270:A2 28.2632 
*END

*D_NET *257 0.00107113
*CONN
*I *1225:C1 I *D sg13g2_a221oi_1
*I *1224:Y O *D sg13g2_nor4_1
*CAP
1 *1225:C1 0
2 *1224:Y 0.000352265
3 *257:10 0.000352265
4 *257:10 *657:18 7.51291e-05
5 *257:10 *661:97 0
6 *257:10 *661:107 0.000243667
7 *257:10 *995:14 0
8 *257:10 *996:10 0
9 *257:10 *996:20 4.78023e-05
10 *257:10 *999:75 0
11 *255:8 *257:10 0
*RES
1 *1224:Y *257:10 43.1592 
2 *257:10 *1225:C1 40 
*END

*D_NET *258 0.00808842
*CONN
*I *1261:B1 I *D sg13g2_a21oi_1
*I *1232:A I *D sg13g2_nor2_1
*I *1235:A I *D sg13g2_or2_1
*I *1238:A1 I *D sg13g2_o21ai_1
*I *1258:A I *D sg13g2_xor2_1
*I *1225:Y O *D sg13g2_a221oi_1
*CAP
1 *1261:B1 2.29248e-05
2 *1232:A 3.16311e-05
3 *1235:A 7.48428e-05
4 *1238:A1 6.99099e-06
5 *1258:A 2.23356e-05
6 *1225:Y 0.000365737
7 *258:60 0.000167968
8 *258:47 0.000272508
9 *258:39 0.000849893
10 *258:35 0.000726667
11 *258:22 0.000572109
12 *258:14 0.00073465
13 *1232:A *1232:B 0
14 *1232:A *1233:S 0
15 *1232:A *1244:A2 2.20968e-05
16 *1235:A *1232:B 0
17 *1235:A *1244:A2 0.000181422
18 *1235:A *264:23 0
19 *1238:A1 *1238:B1 3.53549e-05
20 *1238:A1 *1238:A2 3.53549e-05
21 *1258:A *290:21 0
22 *1261:B1 *1262:C 6.74074e-05
23 *1261:B1 *290:21 0
24 *258:14 *1225:B2 0
25 *258:14 *272:12 0
26 *258:14 *661:88 0
27 *258:14 *995:39 0
28 *258:14 *999:58 8.00835e-05
29 *258:14 *999:75 0.000177361
30 *258:22 *1257:A 7.51291e-05
31 *258:22 *1260:A 0
32 *258:22 *272:16 0
33 *258:22 *285:10 0.000128161
34 *258:22 *290:12 0.000128161
35 *258:22 *290:21 0.000159325
36 *258:35 *282:10 0
37 *258:35 *290:21 0.000181611
38 *258:35 *290:34 0
39 *258:39 *1241:A2 0
40 *258:39 *1263:B1 0
41 *258:39 *266:10 0.000242834
42 *258:39 *273:12 0.000355746
43 *258:39 *275:12 0
44 *258:39 *282:10 0
45 *258:39 *295:8 0.00024322
46 *258:47 *1232:B 0.000179759
47 *258:47 *264:10 4.77421e-05
48 *258:47 *264:23 0.000584106
49 *258:47 *268:16 0
50 *258:47 *269:12 0.000648089
51 *258:47 *271:16 0
52 *258:60 *266:10 9.70242e-05
53 *1225:A1 *258:14 0.000181383
54 *1225:A2 *258:14 0
55 *1256:D *258:22 0
56 *12:16 *258:14 0.000388794
*RES
1 *1225:Y *258:14 43.9424 
2 *258:14 *258:22 23.8016 
3 *258:22 *1258:A 20.2728 
4 *258:22 *258:35 21.9184 
5 *258:35 *258:39 5.192 
6 *258:39 *258:47 43.6872 
7 *258:47 *1238:A1 40.1408 
8 *258:39 *258:60 20.6424 
9 *258:60 *1235:A 20.7216 
10 *258:60 *1232:A 20.2992 
11 *258:35 *1261:B1 40.2684 
*END

*D_NET *260 0.00162582
*CONN
*I *1231:A1 I *D sg13g2_a21o_1
*I *1242:B1 I *D sg13g2_a21oi_1
*I *1227:Y O *D sg13g2_inv_1
*CAP
1 *1231:A1 0.000146871
2 *1242:B1 3.63748e-05
3 *1227:Y 0.000215664
4 *260:20 0.000162262
5 *260:14 0.000488423
6 *1231:A1 *1231:B1 0.000175181
7 *260:14 *1246:A1 8.23737e-05
8 *260:14 *1255:B 0
9 *260:14 *271:16 0
10 *260:14 *272:24 9.33568e-05
11 *260:14 *995:39 0
12 *260:20 *995:50 7.54981e-05
13 *1240:A1 *260:14 2.20326e-05
14 *1270:A2 *1231:A1 0.000127784
15 *1270:A2 *1242:B1 0
16 *1270:A2 *260:14 0
17 *256:36 *1231:A1 0
*RES
1 *1227:Y *260:14 42.0152 
2 *260:14 *260:20 41.144 
3 *260:20 *1242:B1 40.2684 
4 *260:14 *1231:A1 41.485 
*END

*D_NET *261 0.000556428
*CONN
*I *1230:A1 I *D sg13g2_a21oi_1
*I *1228:Y O *D sg13g2_o21ai_1
*CAP
1 *1230:A1 0.000120637
2 *1228:Y 0.000120637
3 *1230:A1 *1222:B1 0
4 *1230:A1 *1230:A2 0.000315154
*RES
1 *1228:Y *1230:A1 41.3376 
*END

*D_NET *262 0.00176085
*CONN
*I *1230:A2 I *D sg13g2_a21oi_1
*I *1229:X O *D sg13g2_or3_1
*CAP
1 *1230:A2 0.000447554
2 *1229:X 0.000447554
3 *1230:A2 *1207:S 0.000127783
4 *1230:A2 *1222:A2 0
5 *1230:A2 *1222:B1 0
6 *1230:A2 *1228:A1 0.000136311
7 *1230:A2 *996:33 0.00028649
8 *1230:A2 *999:47 0
9 *1207:A0 *1230:A2 0
10 *1230:A1 *1230:A2 0.000315154
11 *1249:A1 *1230:A2 0
12 *1249:A2 *1230:A2 0
*RES
1 *1229:X *1230:A2 44.9632 
*END

*D_NET *263 0.00477839
*CONN
*I *1231:B1 I *D sg13g2_a21o_1
*I *1257:A I *D sg13g2_or2_1
*I *1230:Y O *D sg13g2_a21oi_1
*CAP
1 *1231:B1 0.000131006
2 *1257:A 1.72383e-05
3 *1230:Y 0.000490382
4 *263:27 0.000750635
5 *263:10 0.00112725
6 *1231:B1 *1245:B 0
7 *1231:B1 *264:10 0
8 *263:10 *661:88 0.000234161
9 *263:27 *271:16 0.000305375
10 *263:27 *290:12 0.000210686
11 *263:27 *995:50 0.000128044
12 *1205:A2 *263:10 0
13 *1231:A1 *1231:B1 0.000175181
14 *1240:A1 *263:10 0
15 *1240:A1 *263:27 0
16 *1249:A1 *263:10 0
17 *1249:A2 *263:10 0
18 *12:16 *263:10 0
19 *240:43 *263:10 0.000243533
20 *240:43 *263:27 0.000889763
21 *240:49 *263:27 0
22 *256:25 *1231:B1 0
23 *256:36 *1231:B1 0
24 *258:22 *1257:A 7.51291e-05
*RES
1 *1230:Y *263:10 44.2152 
2 *263:10 *1257:A 40.2992 
3 *263:10 *263:27 46.0104 
4 *263:27 *1231:B1 41.4212 
*END

*D_NET *264 0.00235294
*CONN
*I *1232:B I *D sg13g2_nor2_1
*I *1235:B I *D sg13g2_or2_1
*I *1238:A2 I *D sg13g2_o21ai_1
*I *1231:X O *D sg13g2_a21o_1
*CAP
1 *1232:B 0.00019105
2 *1235:B 0
3 *1238:A2 6.64034e-05
4 *1231:X 0.000191887
5 *264:23 0.000366786
6 *264:12 0.00024214
7 *264:10 0.000191887
8 *1232:B *1244:A2 0
9 *1238:A2 *1238:B1 0
10 *1238:A2 *267:50 0
11 *1238:A2 *271:8 0
12 *264:10 *267:12 2.20968e-05
13 *264:10 *269:12 0
14 *264:10 *271:16 0
15 *264:10 *283:10 0
16 *264:23 *1244:A2 0
17 *264:23 *271:8 0.000233724
18 *1231:B1 *264:10 0
19 *1232:A *1232:B 0
20 *1235:A *1232:B 0
21 *1235:A *264:23 0
22 *1238:A1 *1238:A2 3.53549e-05
23 *1270:A2 *1232:B 0
24 *258:47 *1232:B 0.000179759
25 *258:47 *264:10 4.77421e-05
26 *258:47 *264:23 0.000584106
*RES
1 *1231:X *264:10 41.7336 
2 *264:10 *264:12 20 
3 *264:12 *1238:A2 20.7832 
4 *264:12 *264:23 2.541 
5 *264:23 *1235:B 20 
6 *264:23 *1232:B 21.8942 
*END

*D_NET *265 0.00179192
*CONN
*I *1267:A2 I *D sg13g2_o21ai_1
*I *1233:S I *D sg13g2_mux2_1
*I *1232:Y O *D sg13g2_nor2_1
*CAP
1 *1267:A2 0.000197754
2 *1233:S 0.000352611
3 *1232:Y 0.000146264
4 *265:10 0.000550365
5 *265:8 0.000146264
6 *1233:S *1211:B1 0
7 *1233:S *1244:A2 0
8 *1233:S *266:10 0.000288053
9 *1233:S *268:6 0
10 *265:8 *266:10 0
11 *1232:A *1233:S 0
12 *1233:A1 *1233:S 0
13 *1243:A *1233:S 7.51688e-05
14 *1267:A1 *1267:A2 3.54414e-05
15 *232:37 *265:8 0
*RES
1 *1232:Y *265:8 41.3816 
2 *265:8 *265:10 20 
3 *265:10 *1233:S 23.5288 
4 *265:10 *1267:A2 21.9888 
*END

*D_NET *266 0.00262178
*CONN
*I *1241:A1 I *D sg13g2_a21o_1
*I *1242:A1 I *D sg13g2_a21oi_1
*I *1233:X O *D sg13g2_mux2_1
*CAP
1 *1241:A1 0.000183219
2 *1242:A1 0.000183219
3 *1233:X 0.000496357
4 *266:10 0.000496357
5 *1241:A1 *1241:A2 0.000409345
6 *1241:A1 *1241:B1 0
7 *1241:A1 *1242:A2 0
8 *1241:A1 *275:12 0
9 *266:10 *1241:A2 4.78023e-05
10 *266:10 *269:12 0.000177569
11 *1233:S *266:10 0.000288053
12 *1243:A *266:10 0
13 *240:43 *266:10 0
14 *258:39 *266:10 0.000242834
15 *258:60 *266:10 9.70242e-05
16 *265:8 *266:10 0
*RES
1 *1233:X *266:10 44.928 
2 *266:10 *1242:A1 40 
3 *1242:A1 *1241:A1 42.024 
*END

*D_NET *267 0.00278375
*CONN
*I *1236:B1 I *D sg13g2_a22oi_1
*I *1254:A2 I *D sg13g2_o21ai_1
*I *1251:C I *D sg13g2_nor3_1
*I *1234:Y O *D sg13g2_nor2b_1
*CAP
1 *1236:B1 0
2 *1254:A2 0
3 *1251:C 0.000284614
4 *1234:Y 0
5 *267:50 0.000297041
6 *267:12 0.000809597
7 *267:4 0.000822024
8 *1251:C *1251:B 0
9 *1251:C *1252:A2 1.38203e-05
10 *1251:C *1255:B 4.79124e-05
11 *1251:C *272:16 2.20968e-05
12 *1251:C *995:39 0
13 *267:12 *1234:A 0
14 *267:12 *283:10 0
15 *267:12 *995:39 0
16 *267:50 *1238:B1 0
17 *267:50 *1553:A 0.000128161
18 *267:50 *283:10 0.000101779
19 *267:50 *656:57 0
20 *267:50 *657:12 0
21 *1236:A1 *267:50 0
22 *1238:A2 *267:50 0
23 *256:25 *267:12 0.000234604
24 *264:10 *267:12 2.20968e-05
*RES
1 *1234:Y *267:4 20 
2 *267:4 *267:12 24.3824 
3 *267:12 *1251:C 42.4046 
4 *267:12 *1254:A2 40 
5 *267:4 *267:50 43.4804 
6 *267:50 *1236:B1 20 
*END

*D_NET *268 0.0017568
*CONN
*I *1244:A1 I *D sg13g2_o21ai_1
*I *1236:B2 I *D sg13g2_a22oi_1
*I *1235:X O *D sg13g2_or2_1
*CAP
1 *1244:A1 6.83613e-05
2 *1236:B2 0
3 *1235:X 0.000161762
4 *268:16 0.000234723
5 *268:6 0.000464845
6 *1244:A1 *1238:B1 0
7 *1244:A1 *1244:A2 0
8 *1244:A1 *271:8 4.55801e-05
9 *268:6 *1244:A2 0.000394118
10 *268:6 *271:8 0
11 *268:16 *1238:B1 0.000233222
12 *268:16 *269:12 0
13 *1233:A1 *268:6 0
14 *1233:A1 *268:16 0
15 *1233:S *268:6 0
16 *1243:A *268:6 0
17 *242:42 *268:16 0.000154187
18 *258:47 *268:16 0
*RES
1 *1235:X *268:6 21.9888 
2 *268:6 *268:16 42.2968 
3 *268:16 *1236:B2 20 
4 *268:6 *1244:A1 20.6402 
*END

*D_NET *269 0.00311281
*CONN
*I *1242:A2 I *D sg13g2_a21oi_1
*I *1241:A2 I *D sg13g2_a21o_1
*I *1236:Y O *D sg13g2_a22oi_1
*CAP
1 *1242:A2 9.80857e-05
2 *1241:A2 0.000333977
3 *1236:Y 0.000482939
4 *269:12 0.000915002
5 *1241:A2 *1263:B1 0
6 *1241:A2 *1263:A2 0
7 *1241:A2 *275:12 0
8 *1242:A2 *1263:A2 0
9 *269:12 *1245:B 0
10 *1241:A1 *1241:A2 0.000409345
11 *1241:A1 *1242:A2 0
12 *1270:A2 *1241:A2 0
13 *1270:A2 *1242:A2 0
14 *1270:A2 *269:12 0
15 *240:43 *1241:A2 0
16 *240:43 *269:12 0
17 *258:39 *1241:A2 0
18 *258:47 *269:12 0.000648089
19 *264:10 *269:12 0
20 *266:10 *1241:A2 4.78023e-05
21 *266:10 *269:12 0.000177569
22 *268:16 *269:12 0
*RES
1 *1236:Y *269:12 44.8444 
2 *269:12 *1241:A2 43.3176 
3 *269:12 *1242:A2 40.7832 
*END

*D_NET *270 0.00115103
*CONN
*I *1238:B1 I *D sg13g2_o21ai_1
*I *1237:Y O *D sg13g2_nor2_1
*CAP
1 *1238:B1 0.000372449
2 *1237:Y 0.000372449
3 *1238:B1 *1553:A 0
4 *1236:A1 *1238:B1 4.8613e-05
5 *1238:A1 *1238:B1 3.53549e-05
6 *1238:A2 *1238:B1 0
7 *1244:A1 *1238:B1 0
8 *242:12 *1238:B1 0
9 *242:42 *1238:B1 8.89396e-05
10 *267:50 *1238:B1 0
11 *268:16 *1238:B1 0.000233222
*RES
1 *1237:Y *1238:B1 43.3176 
*END

*D_NET *271 0.00204358
*CONN
*I *1244:B1 I *D sg13g2_o21ai_1
*I *1240:A2 I *D sg13g2_a21oi_1
*I *1238:Y O *D sg13g2_o21ai_1
*CAP
1 *1244:B1 0
2 *1240:A2 0
3 *1238:Y 0.000105653
4 *271:16 0.000433713
5 *271:8 0.000539366
6 *271:8 *1244:A2 1.49483e-05
7 *271:16 *1246:A1 7.51291e-05
8 *271:16 *277:8 0.000210007
9 *271:16 *995:39 0
10 *1238:A2 *271:8 0
11 *1240:A1 *271:16 8.00835e-05
12 *1244:A1 *271:8 4.55801e-05
13 *240:43 *271:16 0
14 *258:47 *271:16 0
15 *260:14 *271:16 0
16 *263:27 *271:16 0.000305375
17 *264:10 *271:16 0
18 *264:23 *271:8 0.000233724
19 *268:6 *271:8 0
*RES
1 *1238:Y *271:8 21.2056 
2 *271:8 *271:16 43.7136 
3 *271:16 *1240:A2 20 
4 *271:8 *1244:B1 20 
*END

*D_NET *272 0.0028544
*CONN
*I *1260:A I *D sg13g2_nor3_1
*I *1246:A1 I *D sg13g2_o21ai_1
*I *1240:B1 I *D sg13g2_a21oi_1
*I *1239:X O *D sg13g2_or2_1
*CAP
1 *1260:A 0.000165565
2 *1246:A1 0.000160564
3 *1240:B1 0
4 *1239:X 0.000213948
5 *272:24 0.000478025
6 *272:16 0.000544775
7 *272:12 0.000275697
8 *1246:A1 *1246:B1 1.54556e-05
9 *1260:A *1252:A2 0
10 *1260:A *1255:B 0
11 *1260:A *288:6 7.47517e-05
12 *272:12 *1239:B 0
13 *272:12 *1252:A1 0
14 *272:12 *1252:A2 7.53575e-05
15 *272:12 *1256:C 0
16 *272:12 *995:39 4.78023e-05
17 *272:12 *999:75 0
18 *272:12 *999:84 0
19 *272:24 *285:10 4.77421e-05
20 *272:24 *995:39 0.0004067
21 *1227:A *1246:A1 0
22 *1227:A *272:24 0
23 *1240:A1 *1246:A1 7.50649e-05
24 *1240:A1 *272:24 0
25 *1251:C *272:16 2.20968e-05
26 *256:36 *272:24 0
27 *258:14 *272:12 0
28 *258:22 *1260:A 0
29 *258:22 *272:16 0
30 *260:14 *1246:A1 8.23737e-05
31 *260:14 *272:24 9.33568e-05
32 *271:16 *1246:A1 7.51291e-05
*RES
1 *1239:X *272:12 41.9272 
2 *272:12 *272:16 20.5104 
3 *272:16 *272:24 43.2076 
4 *272:24 *1240:B1 20 
5 *272:24 *1246:A1 21.6302 
6 *272:16 *1260:A 21.5048 
*END

*D_NET *273 0.00188069
*CONN
*I *1241:B1 I *D sg13g2_a21o_1
*I *1240:Y O *D sg13g2_a21oi_1
*CAP
1 *1241:B1 0.000142491
2 *1240:Y 0.00055609
3 *273:12 0.000698581
4 *1241:B1 *274:10 0
5 *273:12 *1246:B1 0
6 *273:12 *1255:B 0
7 *273:12 *274:10 0
8 *273:12 *288:6 0
9 *273:12 *288:17 0
10 *1227:A *273:12 0.000127784
11 *1241:A1 *1241:B1 0
12 *258:39 *273:12 0.000355746
*RES
1 *1240:Y *273:12 44.9236 
2 *273:12 *1241:B1 40.9064 
*END

*D_NET *274 0.000922197
*CONN
*I *1263:A1 I *D sg13g2_a221oi_1
*I *1241:X O *D sg13g2_a21o_1
*CAP
1 *1263:A1 4.18268e-05
2 *1241:X 0.00028966
3 *274:10 0.000331486
4 *1263:A1 *1246:B1 0
5 *1263:A1 *1263:B2 2.4393e-05
6 *1263:A1 *1263:A2 0
7 *1241:B1 *274:10 0
8 *1270:A2 *274:10 0.000234832
9 *232:37 *274:10 0
10 *232:41 *274:10 0
11 *273:12 *274:10 0
*RES
1 *1241:X *274:10 42.684 
2 *274:10 *1263:A1 40.3696 
*END

*D_NET *275 0.000664616
*CONN
*I *1246:A2 I *D sg13g2_o21ai_1
*I *1242:Y O *D sg13g2_a21oi_1
*CAP
1 *1246:A2 0
2 *1242:Y 0.000226808
3 *275:12 0.000226808
4 *275:12 *1246:B1 0
5 *275:12 *1263:B1 0
6 *275:12 *1263:A2 0
7 *1241:A2 *275:12 0
8 *1241:A1 *275:12 0
9 *240:43 *275:12 0.000211
10 *258:39 *275:12 0
*RES
1 *1242:Y *275:12 41.98 
2 *275:12 *1246:A2 40 
*END

*D_NET *276 0.00129643
*CONN
*I *1244:A2 I *D sg13g2_o21ai_1
*I *1243:Y O *D sg13g2_inv_1
*CAP
1 *1244:A2 0.000341921
2 *1243:Y 0.000341921
3 *1232:A *1244:A2 2.20968e-05
4 *1232:B *1244:A2 0
5 *1233:S *1244:A2 0
6 *1235:A *1244:A2 0.000181422
7 *1244:A1 *1244:A2 0
8 *264:23 *1244:A2 0
9 *268:6 *1244:A2 0.000394118
10 *271:8 *1244:A2 1.49483e-05
*RES
1 *1243:Y *1244:A2 43.6784 
*END

*D_NET *277 0.00105673
*CONN
*I *1245:B I *D sg13g2_xnor2_1
*I *1244:Y O *D sg13g2_o21ai_1
*CAP
1 *1245:B 0.000157277
2 *1244:Y 0.000110413
3 *277:8 0.000267689
4 *1231:B1 *1245:B 0
5 *1270:A2 *1245:B 0.000101149
6 *240:43 *277:8 0.00021019
7 *269:12 *1245:B 0
8 *271:16 *277:8 0.000210007
*RES
1 *1244:Y *277:8 41.1968 
2 *277:8 *1245:B 41.452 
*END

*D_NET *278 0.000426998
*CONN
*I *1246:B1 I *D sg13g2_o21ai_1
*I *1245:Y O *D sg13g2_xnor2_1
*CAP
1 *1246:B1 0.00019817
2 *1245:Y 0.00019817
3 *1246:B1 *1263:B2 0
4 *1246:A1 *1246:B1 1.54556e-05
5 *1263:A1 *1246:B1 0
6 *1270:A2 *1246:B1 1.52019e-05
7 *273:12 *1246:B1 0
8 *275:12 *1246:B1 0
*RES
1 *1245:Y *1246:B1 41.7952 
*END

*D_NET *279 0.000952751
*CONN
*I *1263:A2 I *D sg13g2_a221oi_1
*I *1246:Y O *D sg13g2_o21ai_1
*CAP
1 *1263:A2 0.000264185
2 *1246:Y 0.000264185
3 *1263:A2 *1263:B2 3.04912e-05
4 *1263:A2 *1263:B1 0.00039389
5 *1241:A2 *1263:A2 0
6 *1242:A2 *1263:A2 0
7 *1263:A1 *1263:A2 0
8 *1270:A2 *1263:A2 0
9 *275:12 *1263:A2 0
*RES
1 *1246:Y *1263:A2 42.7786 
*END

*D_NET *280 0.00023201
*CONN
*I *1248:B I *D sg13g2_nand2_1
*I *1247:Y O *D sg13g2_xnor2_1
*CAP
1 *1248:B 0.000116005
2 *1247:Y 0.000116005
3 *1248:B *1247:A 0
4 *1248:B *1247:B 0
5 *1216:B1 *1248:B 0
*RES
1 *1247:Y *1248:B 41.1792 
*END

*D_NET *281 0.000886811
*CONN
*I *1249:B1 I *D sg13g2_o21ai_1
*I *1248:Y O *D sg13g2_nand2_1
*CAP
1 *1249:B1 0
2 *1248:Y 0.000419378
3 *281:10 0.000419378
4 *281:10 *1207:A1 0
5 *281:10 *1256:B 0
6 *281:10 *997:50 0
7 *1240:A1 *281:10 4.8056e-05
8 *1248:A *281:10 0
9 *240:21 *281:10 0
10 *240:43 *281:10 0
*RES
1 *1248:Y *281:10 43.3704 
2 *281:10 *1249:B1 40 
*END

*D_NET *282 0.00324809
*CONN
*I *1263:B1 I *D sg13g2_a221oi_1
*I *1262:A I *D sg13g2_nor3_1
*I *1249:Y O *D sg13g2_o21ai_1
*CAP
1 *1263:B1 0.000387872
2 *1262:A 0
3 *1249:Y 0.000386018
4 *282:10 0.00077389
5 *1263:B1 *1263:B2 0
6 *1263:B1 *1263:C1 0.000181233
7 *1263:B1 *1265:A2 0
8 *1263:B1 *295:8 0.000112739
9 *282:10 *290:34 0
10 *1241:A2 *1263:B1 0
11 *1249:A2 *282:10 7.51291e-05
12 *1263:A2 *1263:B1 0.00039389
13 *1268:A0 *282:10 7.51688e-05
14 *240:43 *1263:B1 0.000228013
15 *240:43 *282:10 0.000634133
16 *258:35 *282:10 0
17 *258:39 *1263:B1 0
18 *258:39 *282:10 0
19 *275:12 *1263:B1 0
*RES
1 *1249:Y *282:10 44.1096 
2 *282:10 *1262:A 40 
3 *282:10 *1263:B1 44.2856 
*END

*D_NET *283 0.00166843
*CONN
*I *1254:A1 I *D sg13g2_o21ai_1
*I *1251:B I *D sg13g2_nor3_1
*I *1250:Y O *D sg13g2_inv_1
*CAP
1 *1254:A1 1.03233e-05
2 *1251:B 0.000292166
3 *1250:Y 0.000368585
4 *283:10 0.000671074
5 *1251:B *1252:A2 0
6 *1251:B *999:84 0
7 *1251:B *999:101 0
8 *1254:A1 *1254:B1 4.58509e-05
9 *283:10 *286:8 0.000178658
10 *283:10 *657:12 0
11 *283:10 *995:25 0
12 *1251:C *1251:B 0
13 *264:10 *283:10 0
14 *267:12 *283:10 0
15 *267:50 *283:10 0.000101779
*RES
1 *1250:Y *283:10 43.2648 
2 *283:10 *1251:B 42.3232 
3 *283:10 *1254:A1 40.1826 
*END

*D_NET *284 0.00052185
*CONN
*I *1252:A2 I *D sg13g2_o21ai_1
*I *1251:Y O *D sg13g2_nor3_1
*CAP
1 *1252:A2 0.000216336
2 *1251:Y 0.000216336
3 *1252:A2 *1252:A1 0
4 *1252:A2 *1256:C 0
5 *1252:A2 *1262:B 0
6 *1252:A2 *661:97 0
7 *1252:A2 *995:39 0
8 *1251:B *1252:A2 0
9 *1251:C *1252:A2 1.38203e-05
10 *1260:A *1252:A2 0
11 *272:12 *1252:A2 7.53575e-05
*RES
1 *1251:Y *1252:A2 41.892 
*END

*D_NET *285 0.000647613
*CONN
*I *1255:A I *D sg13g2_nand2_1
*I *1252:Y O *D sg13g2_o21ai_1
*CAP
1 *1255:A 0
2 *1252:Y 0.000171963
3 *285:10 0.000171963
4 *285:10 *995:39 0.000127783
5 *258:22 *285:10 0.000128161
6 *272:24 *285:10 4.77421e-05
*RES
1 *1252:Y *285:10 41.7072 
2 *285:10 *1255:A 40 
*END

*D_NET *286 0.000831388
*CONN
*I *1254:B1 I *D sg13g2_o21ai_1
*I *1253:Y O *D sg13g2_nor2_1
*CAP
1 *1254:B1 0.000136387
2 *1253:Y 9.40215e-05
3 *286:8 0.000230408
4 *1254:B1 *1255:B 0
5 *1254:B1 *661:107 0
6 *1254:B1 *999:84 0
7 *286:8 *995:25 0.000146063
8 *1224:D *1254:B1 0
9 *1254:A1 *1254:B1 4.58509e-05
10 *283:10 *286:8 0.000178658
*RES
1 *1253:Y *286:8 41.012 
2 *286:8 *1254:B1 41.2518 
*END

*D_NET *287 0.000512508
*CONN
*I *1255:B I *D sg13g2_nand2_1
*I *1254:Y O *D sg13g2_o21ai_1
*CAP
1 *1255:B 0.000232298
2 *1254:Y 0.000232298
3 *1255:B *1260:B 0
4 *1255:B *661:107 0
5 *1227:A *1255:B 0
6 *1251:C *1255:B 4.79124e-05
7 *1254:B1 *1255:B 0
8 *1260:A *1255:B 0
9 *260:14 *1255:B 0
10 *273:12 *1255:B 0
*RES
1 *1254:Y *1255:B 42.3056 
*END

*D_NET *288 0.00196243
*CONN
*I *1261:A1 I *D sg13g2_a21oi_1
*I *1259:A I *D sg13g2_nand2_1
*I *1260:B I *D sg13g2_nor3_1
*I *1255:Y O *D sg13g2_nand2_1
*CAP
1 *1261:A1 0
2 *1259:A 0.000225132
3 *1260:B 2.62655e-05
4 *1255:Y 0.000195672
5 *288:17 0.000516294
6 *288:6 0.000513099
7 *1259:A *1262:B 0
8 *1259:A *1262:C 1.54556e-05
9 *1259:A *1265:A2 0
10 *1259:A *291:10 0
11 *1260:B *1262:B 0
12 *288:17 *1262:B 0
13 *288:17 *1262:C 0.000267139
14 *288:17 *1263:C1 0
15 *288:17 *1265:A2 0.000128618
16 *288:17 *290:21 0
17 *288:17 *291:10 0
18 *1227:A *288:6 0
19 *1255:B *1260:B 0
20 *1260:A *288:6 7.47517e-05
21 *273:12 *288:6 0
22 *273:12 *288:17 0
*RES
1 *1255:Y *288:6 21.5664 
2 *288:6 *1260:B 20.2728 
3 *288:6 *288:17 3.08 
4 *288:17 *1259:A 22.2968 
5 *288:17 *1261:A1 20 
*END

*D_NET *289 0.000181912
*CONN
*I *1257:B I *D sg13g2_or2_1
*I *1256:Y O *D sg13g2_nor4_1
*CAP
1 *1257:B 9.09558e-05
2 *1256:Y 9.09558e-05
3 *1256:D *1257:B 0
4 *12:16 *1257:B 0
*RES
1 *1256:Y *1257:B 40.6402 
*END

*D_NET *290 0.0020652
*CONN
*I *1261:A2 I *D sg13g2_a21oi_1
*I *1258:B I *D sg13g2_xor2_1
*I *1260:C I *D sg13g2_nor3_1
*I *1257:X O *D sg13g2_or2_1
*CAP
1 *1261:A2 0
2 *1258:B 0
3 *1260:C 0
4 *1257:X 0
5 *290:34 0.000261558
6 *290:21 0.000433541
7 *290:12 0.000154061
8 *290:4 0.000326044
9 *290:21 *1262:B 0
10 *290:21 *1262:C 0
11 *290:34 *1262:C 0
12 *290:34 *291:10 0
13 *1240:A1 *290:12 0.000210209
14 *1258:A *290:21 0
15 *1261:B1 *290:21 0
16 *258:22 *290:12 0.000128161
17 *258:22 *290:21 0.000159325
18 *258:35 *290:21 0.000181611
19 *258:35 *290:34 0
20 *263:27 *290:12 0.000210686
21 *282:10 *290:34 0
22 *288:17 *290:21 0
*RES
1 *1257:X *290:4 20 
2 *290:4 *290:12 41.7072 
3 *290:12 *1260:C 20 
4 *290:4 *290:21 2.024 
5 *290:21 *1258:B 20 
6 *290:21 *290:34 41.0912 
7 *290:34 *1261:A2 20 
*END

*D_NET *291 0.000580166
*CONN
*I *1259:B I *D sg13g2_nand2_1
*I *1258:X O *D sg13g2_xor2_1
*CAP
1 *1259:B 0
2 *1258:X 0.000290083
3 *291:10 0.000290083
4 *291:10 *1262:C 0
5 *1259:A *291:10 0
6 *232:43 *291:10 0
7 *288:17 *291:10 0
8 *290:34 *291:10 0
*RES
1 *1258:X *291:10 42.552 
2 *291:10 *1259:B 40 
*END

*D_NET *292 0.000829648
*CONN
*I *1263:B2 I *D sg13g2_a221oi_1
*I *1259:Y O *D sg13g2_nand2_1
*CAP
1 *1263:B2 0.000204537
2 *1259:Y 0.000145147
3 *292:10 0.000349684
4 *1263:B2 *1265:A2 0
5 *292:10 *1265:A2 7.53965e-05
6 *1246:B1 *1263:B2 0
7 *1263:B1 *1263:B2 0
8 *1263:A1 *1263:B2 2.4393e-05
9 *1263:A2 *1263:B2 3.04912e-05
10 *232:41 *292:10 0
*RES
1 *1259:Y *292:10 41.496 
2 *292:10 *1263:B2 42.0504 
*END

*D_NET *293 0.00052901
*CONN
*I *1262:B I *D sg13g2_nor3_1
*I *1260:Y O *D sg13g2_nor3_1
*CAP
1 *1262:B 0.000264505
2 *1260:Y 0.000264505
3 *1262:B *1262:C 0
4 *1252:A2 *1262:B 0
5 *1259:A *1262:B 0
6 *1260:B *1262:B 0
7 *288:17 *1262:B 0
8 *290:21 *1262:B 0
*RES
1 *1260:Y *1262:B 42.2968 
*END

*D_NET *294 0.00052576
*CONN
*I *1262:C I *D sg13g2_nor3_1
*I *1261:Y O *D sg13g2_a21oi_1
*CAP
1 *1262:C 8.78789e-05
2 *1261:Y 8.78789e-05
3 *1259:A *1262:C 1.54556e-05
4 *1261:B1 *1262:C 6.74074e-05
5 *1262:B *1262:C 0
6 *288:17 *1262:C 0.000267139
7 *290:21 *1262:C 0
8 *290:34 *1262:C 0
9 *291:10 *1262:C 0
*RES
1 *1261:Y *1262:C 41.2056 
*END

*D_NET *295 0.000940657
*CONN
*I *1263:C1 I *D sg13g2_a221oi_1
*I *1262:Y O *D sg13g2_nor3_1
*CAP
1 *1263:C1 6.87738e-05
2 *1262:Y 0.000132958
3 *295:8 0.000201732
4 *1263:C1 *1265:A2 0
5 *1263:B1 *1263:C1 0.000181233
6 *1263:B1 *295:8 0.000112739
7 *258:39 *295:8 0.00024322
8 *288:17 *1263:C1 0
*RES
1 *1262:Y *295:8 41.3816 
2 *295:8 *1263:C1 40.7216 
*END

*D_NET *296 0.00101434
*CONN
*I *1265:A2 I *D sg13g2_o21ai_1
*I *1263:Y O *D sg13g2_a221oi_1
*CAP
1 *1265:A2 0.000405163
2 *1263:Y 0.000405163
3 *1259:A *1265:A2 0
4 *1263:B2 *1265:A2 0
5 *1263:C1 *1265:A2 0
6 *1263:B1 *1265:A2 0
7 *1264:B *1265:A2 0
8 *288:17 *1265:A2 0.000128618
9 *292:10 *1265:A2 7.53965e-05
*RES
1 *1263:Y *1265:A2 44.1184 
*END

*D_NET *297 0.000451664
*CONN
*I *1265:B1 I *D sg13g2_o21ai_1
*I *1264:Y O *D sg13g2_nand2_1
*CAP
1 *1265:B1 4.51365e-05
2 *1264:Y 0.000143111
3 *297:8 0.000188248
4 *297:8 *1850:CLK 0
5 *1264:B *1265:B1 0
6 *1848:D *1265:B1 7.51684e-05
7 *232:43 *297:8 0
*RES
1 *1264:Y *297:8 41.3816 
2 *297:8 *1265:B1 40.5104 
*END

*D_NET *298 0.00104935
*CONN
*I *1267:B1 I *D sg13g2_o21ai_1
*I *1266:Y O *D sg13g2_nand2_1
*CAP
1 *1267:B1 0.000524675
2 *1266:Y 0.000524675
3 *1267:B1 *981:39 0
4 *1267:B1 *1089:10 0
5 *1266:B *1267:B1 0
6 *1849:D *1267:B1 0
7 *232:20 *1267:B1 0
*RES
1 *1266:Y *1267:B1 44.9368 
*END

*D_NET *299 0.000713023
*CONN
*I *1270:B1 I *D sg13g2_o21ai_1
*I *1269:Y O *D sg13g2_nand2_1
*CAP
1 *1270:B1 0.000150965
2 *1269:Y 0.000150965
3 *232:93 *1270:B1 0.000411094
*RES
1 *1269:Y *1270:B1 41.8392 
*END

*D_NET *302 0.00275811
*CONN
*I *1281:A1 I *D sg13g2_a21oi_2
*I *1303:B1 I *D sg13g2_a21oi_1
*I *1328:B1 I *D sg13g2_o21ai_1
*I *1273:Y O *D sg13g2_inv_1
*CAP
1 *1281:A1 0.000136127
2 *1303:B1 0.000263698
3 *1328:B1 9.68803e-05
4 *1273:Y 0.000215741
5 *302:18 0.000688009
6 *302:12 0.000463558
7 *302:10 0.000215741
8 *1281:A1 *1329:A1 0
9 *1281:A1 *334:8 0
10 *1281:A1 *1009:27 0
11 *1303:B1 *1289:A1 8.14554e-05
12 *1303:B1 *1299:B 0
13 *1303:B1 *1303:A2 0.000134488
14 *1303:B1 *315:22 0
15 *1328:B1 *1305:A1 0
16 *1328:B1 *1328:A2 1.52019e-05
17 *1328:B1 *1329:B1 1.49483e-05
18 *302:10 *311:16 0
19 *302:10 *1001:31 4.77421e-05
20 *302:10 *1005:40 0
21 *302:10 *1009:17 0
22 *302:18 *1299:B 0
23 *302:18 *1327:B 0.000181194
24 *302:18 *1327:C 7.51684e-05
25 *302:18 *315:22 0
26 *302:18 *327:10 0
27 *302:18 *1001:31 0.000128161
*RES
1 *1273:Y *302:10 41.76 
2 *302:10 *302:12 20 
3 *302:12 *302:18 22.9216 
4 *302:18 *1328:B1 40.7832 
5 *302:18 *1303:B1 42.2858 
6 *302:12 *1281:A1 21.2056 
*END

*D_NET *305 0.00526204
*CONN
*I *1337:A I *D sg13g2_nand2_1
*I *1289:A2 I *D sg13g2_o21ai_1
*I *1280:B I *D sg13g2_nor3_1
*I *1324:A2 I *D sg13g2_o21ai_1
*I *1276:X O *D sg13g2_or2_1
*CAP
1 *1337:A 0.000539989
2 *1289:A2 0
3 *1280:B 0
4 *1324:A2 0
5 *1276:X 0.000181912
6 *305:45 0.000115818
7 *305:32 0.000118217
8 *305:22 0.000234035
9 *305:20 0.00027703
10 *305:12 0.000425339
11 *305:10 0.000870211
12 *1337:A *1291:C 7.51291e-05
13 *1337:A *1335:A 0
14 *1337:A *1337:B 0
15 *1337:A *1343:A 7.51688e-05
16 *1337:A *1343:B 0.00012839
17 *1337:A *1004:76 7.51291e-05
18 *1337:A *1004:97 0.000437636
19 *305:10 *1337:B 0.00044567
20 *305:10 *1341:B 6.55649e-05
21 *305:10 *317:8 0.000142575
22 *305:10 *1002:57 0.000392677
23 *305:12 *1324:B1 4.70134e-05
24 *305:12 *1341:B 0.00014422
25 *305:12 *317:8 0.000191053
26 *305:12 *358:18 0.00011012
27 *305:20 *350:31 0
28 *305:32 *1324:B1 4.63397e-05
29 *305:32 *1329:B1 0
30 *305:32 *1009:54 0
31 *305:45 *1281:B1 0
32 *305:45 *334:82 0
33 *305:45 *353:10 7.51291e-05
34 *22:73 *305:20 0
35 *22:73 *305:32 0
36 *22:73 *305:45 4.767e-05
*RES
1 *1276:X *305:10 42.6048 
2 *305:10 *305:12 1.3816 
3 *305:12 *305:20 42.3672 
4 *305:20 *305:22 20 
5 *305:22 *305:32 41.1352 
6 *305:32 *1324:A2 20 
7 *305:22 *305:45 41.1264 
8 *305:45 *1280:B 20 
9 *305:12 *1289:A2 40 
10 *305:10 *1337:A 45.1568 
*END

*D_NET *308 0.000467885
*CONN
*I *1280:C I *D sg13g2_nor3_1
*I *1279:Y O *D sg13g2_nor2_1
*CAP
1 *1280:C 0.00018533
2 *1279:Y 0.00018533
3 *1280:C *1281:B1 0
4 *1280:C *1293:B2 0
5 *1280:C *1293:C1 0
6 *1280:C *1293:A2 0
7 *1280:C *353:10 2.20968e-05
8 *1280:C *1004:97 0
9 *1279:B *1280:C 7.51291e-05
*RES
1 *1279:Y *1280:C 41.5994 
*END

*D_NET *309 0.000956235
*CONN
*I *1281:B1 I *D sg13g2_a21oi_2
*I *1280:Y O *D sg13g2_nor3_1
*CAP
1 *1281:B1 0.000350125
2 *1280:Y 0.000350125
3 *1281:B1 *1279:A 0
4 *1281:B1 *310:10 0.000233849
5 *1281:B1 *334:8 0
6 *1281:B1 *334:82 0
7 *1281:B1 *353:10 0
8 *1281:B1 *354:10 2.21361e-05
9 *1281:B1 *1009:27 0
10 *1279:B *1281:B1 0
11 *1280:C *1281:B1 0
12 *1325:A *1281:B1 0
13 *305:45 *1281:B1 0
*RES
1 *1280:Y *1281:B1 43.1328 
*END

*D_NET *310 0.0062117
*CONN
*I *1319:A2 I *D sg13g2_o21ai_1
*I *1318:B I *D sg13g2_nand2_1
*I *1307:A0 I *D sg13g2_mux2_1
*I *1313:A I *D sg13g2_and2_1
*I *1311:A I *D sg13g2_or2_1
*I *1358:A I *D sg13g2_inv_1
*I *1281:Y O *D sg13g2_a21oi_2
*CAP
1 *1319:A2 0.000165497
2 *1318:B 0
3 *1307:A0 0
4 *1313:A 0.00025535
5 *1311:A 0
6 *1358:A 0.000265724
7 *1281:Y 0.000236492
8 *310:62 0.000211851
9 *310:33 0.00020046
10 *310:16 0.000538728
11 *310:14 0.000836779
12 *310:12 0.000919122
13 *310:10 0.000693085
14 *1313:A *1313:B 0
15 *1313:A *1314:C1 0
16 *1313:A *984:192 0
17 *1319:A2 *1319:A1 0
18 *1319:A2 *315:48 0
19 *1319:A2 *344:25 0
20 *1319:A2 *347:10 0.000234455
21 *1358:A *1311:B 0
22 *1358:A *334:43 0
23 *1358:A *341:10 1.50728e-05
24 *1358:A *349:10 0
25 *1358:A *383:27 0.00012839
26 *1358:A *383:42 0
27 *310:10 *334:12 0
28 *310:10 *344:12 0.000275383
29 *310:10 *1009:27 0.000286568
30 *310:12 *334:12 0
31 *310:12 *344:12 4.77421e-05
32 *310:12 *350:10 0
33 *310:12 *1003:37 0
34 *310:14 *341:10 0.000405449
35 *310:14 *349:10 0
36 *310:14 *350:10 0
37 *310:16 *341:10 0.000111405
38 *310:62 *344:6 7.51291e-05
39 *310:62 *344:25 7.51688e-05
40 *1281:B1 *310:10 0.000233849
41 *1873:CLK *1358:A 0
*RES
1 *1281:Y *310:10 42.7104 
2 *310:10 *310:12 3.4144 
3 *310:12 *310:14 4.3384 
4 *310:14 *310:16 0.6424 
5 *310:16 *1358:A 42.6576 
6 *310:16 *310:33 41.9888 
7 *310:33 *1311:A 40 
8 *310:14 *1313:A 42.0504 
9 *310:12 *1307:A0 40 
10 *310:10 *310:62 20.5104 
11 *310:62 *1318:B 20 
12 *310:62 *1319:A2 21.8744 
*END

*D_NET *311 0.00394136
*CONN
*I *1307:A1 I *D sg13g2_mux2_1
*I *1327:C I *D sg13g2_nor3_1
*I *1283:B I *D sg13g2_or2_1
*I *1298:A2 I *D sg13g2_o21ai_1
*I *1282:Y O *D sg13g2_nor2_2
*CAP
1 *1307:A1 0.000394298
2 *1327:C 5.20597e-05
3 *1283:B 1.9116e-05
4 *1298:A2 0
5 *1282:Y 0.000173343
6 *311:30 0.000183507
7 *311:18 0.000202623
8 *311:16 0.000551303
9 *311:12 0.000954136
10 *311:8 0.000233939
11 *1283:B *1001:18 8.56251e-05
12 *1283:B *1005:30 0.000107722
13 *1307:A1 *1307:S 7.51688e-05
14 *1307:A1 *1308:A 0
15 *1307:A1 *334:65 0
16 *1307:A1 *350:10 0
17 *1307:A1 *1000:25 0
18 *1327:C *315:22 8.00835e-05
19 *1327:C *1005:30 7.51684e-05
20 *311:8 *673:25 0
21 *311:8 *1000:14 0
22 *311:12 *1000:25 0
23 *311:16 *315:22 8.00835e-05
24 *311:16 *1000:14 0
25 *311:16 *1001:10 0
26 *311:16 *1005:40 0
27 *311:30 *1298:B1 0
28 *311:30 *1299:B 0
29 *311:30 *327:10 0
30 *311:30 *1001:18 0.000181611
31 *311:30 *1005:21 0.000235021
32 *311:30 *1005:30 0.000181383
33 *302:10 *311:16 0
34 *302:18 *1327:C 7.51684e-05
*RES
1 *1282:Y *311:8 41.5664 
2 *311:8 *311:12 20.5104 
3 *311:12 *311:16 25.0776 
4 *311:16 *311:18 20 
5 *311:18 *311:30 42.4376 
6 *311:30 *1298:A2 20 
7 *311:18 *1283:B 20.429 
8 *311:16 *1327:C 40.7568 
9 *311:12 *1307:A1 23.8896 
*END

*D_NET *312 0.000668657
*CONN
*I *1329:A1 I *D sg13g2_o21ai_1
*I *1305:A1 I *D sg13g2_o21ai_1
*I *1283:X O *D sg13g2_or2_1
*CAP
1 *1329:A1 0.000155881
2 *1305:A1 7.37561e-05
3 *1283:X 0.000104691
4 *312:6 0.000334329
5 *1305:A1 *1328:A2 0
6 *1305:A1 *1329:B1 0
7 *1329:A1 *1329:B1 0
8 *1329:A1 *322:29 0
9 *312:6 *1327:B 0
10 *312:6 *1328:A2 0
11 *312:6 *334:8 0
12 *1281:A1 *1329:A1 0
13 *1328:B1 *1305:A1 0
*RES
1 *1283:X *312:6 21.012 
2 *312:6 *1305:A1 20.7546 
3 *312:6 *1329:A1 21.3882 
*END

*D_NET *314 0.000597747
*CONN
*I *1293:A1 I *D sg13g2_a221oi_1
*I *1285:Y O *D sg13g2_inv_1
*CAP
1 *1293:A1 0.000154934
2 *1285:Y 0.000154934
3 *1293:A1 *1293:C1 0.000181422
4 *1293:A1 *1293:B1 4.79124e-05
5 *1293:A1 *1293:A2 5.85444e-05
6 *1293:A1 *363:36 0
7 *1293:A1 *1004:97 0
*RES
1 *1285:Y *1293:A1 41.628 
*END

*D_NET *315 0.011138
*CONN
*I *1331:A2 I *D sg13g2_a22oi_1
*I *1293:A2 I *D sg13g2_a221oi_1
*I *1319:A1 I *D sg13g2_o21ai_1
*I *1345:A1 I *D sg13g2_a21o_1
*I *1333:A2 I *D sg13g2_o21ai_1
*I *1286:Y O *D sg13g2_inv_2
*CAP
1 *1331:A2 1.50822e-05
2 *1293:A2 0.000342725
3 *1319:A1 0.000313201
4 *1345:A1 0
5 *1333:A2 0.000409861
6 *1286:Y 0.000428387
7 *315:93 0.00025882
8 *315:48 0.00118012
9 *315:39 0.000281459
10 *315:22 0.00158257
11 *315:12 0.00183912
12 *315:8 0.000608321
13 *1293:A2 *334:92 4.66158e-05
14 *1293:A2 *371:10 0
15 *1293:A2 *1004:97 0.000125658
16 *1293:A2 *1009:42 0.000240956
17 *1319:A1 *1323:A 0
18 *1319:A1 *1347:A1 0
19 *1319:A1 *347:10 0.000112932
20 *1319:A1 *350:25 0
21 *1319:A1 *371:10 0
22 *1319:A1 *375:10 0
23 *1331:A2 *1331:B2 3.59073e-05
24 *1333:A2 *1333:B1 0
25 *1333:A2 *1333:A1 0
26 *1333:A2 *1761:A 0
27 *1333:A2 *1001:46 0
28 *1333:A2 *1002:57 0
29 *1333:A2 *1002:91 0
30 *1333:A2 *1004:25 0
31 *315:8 *1006:23 0.000146063
32 *315:8 *1009:112 0.000340618
33 *315:12 *1001:18 0.000606963
34 *315:12 *1005:21 0
35 *315:12 *1009:6 0
36 *315:12 *1009:10 0
37 *315:22 *1299:B 0
38 *315:22 *1327:B 6.46828e-05
39 *315:22 *1332:B 0.00019422
40 *315:22 *330:10 8.059e-05
41 *315:22 *1001:18 0.000112425
42 *315:22 *1001:31 0
43 *315:22 *1002:10 0
44 *315:22 *1002:12 0
45 *315:22 *1004:56 0.000111296
46 *315:39 *1332:B 0
47 *315:39 *1344:B 0
48 *315:39 *374:10 0.000234793
49 *315:39 *1001:46 0
50 *315:39 *1002:57 0
51 *315:39 *1007:74 0
52 *315:39 *1007:86 0
53 *315:48 *344:6 0
54 *315:48 *347:10 0
55 *315:48 *1001:18 7.51688e-05
56 *315:48 *1005:30 0
57 *315:48 *1005:40 0
58 *315:48 *1009:10 0
59 *315:48 *1009:17 0
60 *315:48 *1009:27 0.000869428
61 *315:48 *1009:42 0
62 *315:93 *360:10 8.01443e-05
63 *1280:C *1293:A2 0
64 *1293:A1 *1293:A2 5.85444e-05
65 *1303:B1 *315:22 0
66 *1319:A2 *1319:A1 0
67 *1319:A2 *315:48 0
68 *1327:C *315:22 8.00835e-05
69 *21:21 *315:93 0.000181194
70 *22:20 *315:93 0
71 *302:18 *315:22 0
72 *311:16 *315:22 8.00835e-05
*RES
1 *1286:Y *315:8 41.936 
2 *315:8 *315:12 24.312 
3 *315:12 *315:22 47.3128 
4 *315:22 *1333:A2 23.5024 
5 *315:22 *315:39 42.6312 
6 *315:39 *1345:A1 20 
7 *315:12 *315:48 25.5792 
8 *315:48 *1319:A1 42.904 
9 *315:48 *1293:A2 43.0756 
10 *1286:Y *315:93 42.1032 
11 *315:93 *1331:A2 40.143 
*END

*D_NET *316 0.00426261
*CONN
*I *1289:A1 I *D sg13g2_o21ai_1
*I *1326:A I *D sg13g2_nor2_1
*I *1304:A1 I *D sg13g2_a221oi_1
*I *1287:Y O *D sg13g2_inv_1
*CAP
1 *1289:A1 0.000392938
2 *1326:A 0
3 *1304:A1 2.55005e-05
4 *1287:Y 0.00016581
5 *316:37 0.000279091
6 *316:27 0.000693068
7 *316:18 9.3216e-05
8 *316:14 0.000212486
9 *1289:A1 *1303:A2 0
10 *1289:A1 *1304:C1 0.000207238
11 *1289:A1 *1304:A2 4.30888e-05
12 *1289:A1 *1338:A 0.000478353
13 *1289:A1 *1338:B 0
14 *1289:A1 *1342:C1 0.000151225
15 *1289:A1 *333:12 0.000446584
16 *1289:A1 *363:36 0.000127972
17 *1304:A1 *1304:C1 0
18 *1304:A1 *1304:A2 1.85915e-05
19 *1304:A1 *1338:A 0
20 *316:14 *1304:C1 0
21 *316:14 *1304:A2 0.000101779
22 *316:14 *327:10 8.03372e-05
23 *316:14 *329:10 4.8056e-05
24 *316:18 *1304:C1 0.000128161
25 *316:27 *1304:C1 5.30323e-05
26 *316:27 *1304:A2 2.48589e-05
27 *316:37 *1299:B 0.000384906
28 *316:37 *1326:B 2.48589e-05
29 *316:37 *1328:A2 0
30 *316:37 *327:10 0
31 *1303:B1 *1289:A1 8.14554e-05
32 *21:45 *1289:A1 0
*RES
1 *1287:Y *316:14 41.8304 
2 *316:14 *316:18 20.5104 
3 *316:18 *1304:A1 20.2728 
4 *316:18 *316:27 0.2992 
5 *316:27 *316:37 42.3078 
6 *316:37 *1326:A 20 
7 *316:27 *1289:A1 25.2602 
*END

*D_NET *317 0.00239439
*CONN
*I *1344:B I *D sg13g2_nor2_1
*I *1289:B1 I *D sg13g2_o21ai_1
*I *1324:B1 I *D sg13g2_o21ai_1
*I *1288:Y O *D sg13g2_nand2_1
*CAP
1 *1344:B 0.000206327
2 *1289:B1 0
3 *1324:B1 0.000251615
4 *1288:Y 0
5 *317:8 0.000511115
6 *317:6 0.000465827
7 *1324:B1 *1293:C1 0
8 *1324:B1 *1329:B1 0
9 *1324:B1 *322:6 7.51291e-05
10 *1324:B1 *322:29 0
11 *1324:B1 *358:10 0.000209018
12 *1324:B1 *363:36 0
13 *1344:B *1345:B1 0
14 *1344:B *374:10 7.50649e-05
15 *1344:B *1002:65 1.50747e-05
16 *1344:B *1007:86 0
17 *317:8 *1002:65 7.81514e-05
18 *317:8 *1004:76 8.00835e-05
19 *22:73 *1344:B 0
20 *22:73 *317:8 0
21 *305:10 *317:8 0.000142575
22 *305:12 *1324:B1 4.70134e-05
23 *305:12 *317:8 0.000191053
24 *305:32 *1324:B1 4.63397e-05
25 *315:39 *1344:B 0
*RES
1 *1288:Y *317:6 40 
2 *317:6 *317:8 2.1208 
3 *317:8 *1324:B1 42.3232 
4 *317:8 *1289:B1 40 
5 *317:6 *1344:B 41.7688 
*END

*D_NET *318 0.0030483
*CONN
*I *1343:B I *D sg13g2_and2_1
*I *1293:B1 I *D sg13g2_a221oi_1
*I *1289:Y O *D sg13g2_o21ai_1
*CAP
1 *1343:B 0.000290603
2 *1293:B1 0.000201876
3 *1289:Y 0.000209037
4 *318:12 0.000701517
5 *1293:B1 *1293:B2 0
6 *1293:B1 *1293:C1 7.51291e-05
7 *1293:B1 *334:92 0
8 *1293:B1 *1004:97 0.000209703
9 *1343:B *1337:B 0
10 *1343:B *334:92 0
11 *1343:B *371:10 0
12 *1343:B *1004:97 0.000258985
13 *1343:B *1009:74 0
14 *318:12 *1342:B2 0.000441235
15 *318:12 *358:18 2.20968e-05
16 *318:12 *367:14 0.000461811
17 *1293:A1 *1293:B1 4.79124e-05
18 *1337:A *1343:B 0.00012839
*RES
1 *1289:Y *318:12 42.7456 
2 *318:12 *1293:B1 41.7688 
3 *318:12 *1343:B 42.6312 
*END

*D_NET *319 0.000212866
*CONN
*I *1292:A1 I *D sg13g2_a21oi_1
*I *1290:Y O *D sg13g2_nand2b_1
*CAP
1 *1292:A1 0.000106433
2 *1290:Y 0.000106433
3 *1292:A1 *374:10 0
4 *1292:A1 *1009:74 0
*RES
1 *1290:Y *1292:A1 40.9328 
*END

*D_NET *320 0.000427672
*CONN
*I *1292:A2 I *D sg13g2_a21oi_1
*I *1291:X O *D sg13g2_or4_1
*CAP
1 *1292:A2 3.89088e-05
2 *1291:X 0.00016254
3 *320:8 0.000201449
4 *320:8 *321:10 0
5 *320:8 *1009:74 2.47742e-05
*RES
1 *1291:X *320:8 41.3816 
2 *320:8 *1292:A2 40.2992 
*END

*D_NET *321 0.00272391
*CONN
*I *1346:B I *D sg13g2_or4_1
*I *1293:C1 I *D sg13g2_a221oi_1
*I *1292:Y O *D sg13g2_a21oi_1
*CAP
1 *1346:B 0.000103482
2 *1293:C1 0.000445134
3 *1292:Y 0.000504916
4 *321:10 0.00105353
5 *1293:C1 *1293:B2 1.52045e-05
6 *1293:C1 *322:6 2.20968e-05
7 *1293:C1 *366:8 0
8 *1293:C1 *371:10 0
9 *1293:C1 *372:8 4.78023e-05
10 *1293:C1 *375:10 0
11 *1346:B *1342:B2 0
12 *1346:B *1346:D 0
13 *1346:B *334:92 1.54556e-05
14 *1346:B *371:10 2.20968e-05
15 *321:10 *1337:B 0
16 *321:10 *366:8 0
17 *321:10 *372:8 0.000162467
18 *321:10 *374:10 7.51684e-05
19 *321:10 *1009:74 0
20 *1280:C *1293:C1 0
21 *1293:B1 *1293:C1 7.51291e-05
22 *1293:A1 *1293:C1 0.000181422
23 *1324:B1 *1293:C1 0
24 *320:8 *321:10 0
*RES
1 *1292:Y *321:10 44.8752 
2 *321:10 *1293:C1 43.7752 
3 *321:10 *1346:B 40.88 
*END

*D_NET *322 0.00260557
*CONN
*I *1329:A2 I *D sg13g2_o21ai_1
*I *1305:A2 I *D sg13g2_o21ai_1
*I *1293:Y O *D sg13g2_a221oi_1
*CAP
1 *1329:A2 0
2 *1305:A2 0
3 *1293:Y 0.000303949
4 *322:29 0.000188174
5 *322:14 0.000112196
6 *322:6 0.00060432
7 *322:6 *358:10 0
8 *322:14 *1329:B1 0.000340356
9 *322:14 *333:12 7.90636e-05
10 *322:14 *1001:31 7.90636e-05
11 *322:29 *1329:B1 1.51298e-05
12 *322:29 *333:12 0
13 *1293:C1 *322:6 2.20968e-05
14 *1324:B1 *322:6 7.51291e-05
15 *1324:B1 *322:29 0
16 *1329:A1 *322:29 0
17 *21:45 *322:6 0.00044573
18 *21:45 *322:14 0.000340356
19 *22:56 *322:29 0
*RES
1 *1293:Y *322:6 22.8336 
2 *322:6 *322:14 41.8128 
3 *322:14 *1305:A2 20 
4 *322:6 *322:29 41.3992 
5 *322:29 *1329:A2 20 
*END

*D_NET *323 0.00182446
*CONN
*I *1331:B1 I *D sg13g2_a22oi_1
*I *1296:A2 I *D sg13g2_o21ai_1
*I *1294:X O *D sg13g2_a21o_1
*CAP
1 *1331:B1 1.11099e-05
2 *1296:A2 0.000371272
3 *1294:X 0.000189654
4 *323:12 0.000572036
5 *1296:A2 *1294:B1 0
6 *1296:A2 *1295:B 0.000128539
7 *1296:A2 *1296:A1 2.37541e-05
8 *1296:A2 *1304:A2 0.000112599
9 *1296:A2 *1336:A 0
10 *1296:A2 *1336:B 0
11 *1296:A2 *1002:108 0
12 *1296:A2 *1004:17 0
13 *1331:B1 *1002:108 0
14 *1331:B1 *1008:40 0
15 *323:12 *1331:A1 2.21365e-05
16 *323:12 *1336:A 0
17 *323:12 *1008:40 0.000393363
*RES
1 *1294:X *323:12 22.3188 
2 *323:12 *1296:A2 23.9116 
3 *323:12 *1331:B1 20.1496 
*END

*D_NET *324 0.000438552
*CONN
*I *1296:B1 I *D sg13g2_o21ai_1
*I *1295:Y O *D sg13g2_nand3b_1
*CAP
1 *1296:B1 0
2 *1295:Y 7.07385e-05
3 *324:14 8.37781e-05
4 *324:8 0.000154517
5 *324:8 *1331:A1 0
6 *324:8 *798:9 0
7 *22:14 *324:14 0.000129519
*RES
1 *1295:Y *324:8 40.4576 
2 *324:8 *324:14 40.9328 
3 *324:14 *1296:B1 40 
*END

*D_NET *325 0.00182345
*CONN
*I *1304:A2 I *D sg13g2_a221oi_1
*I *1296:Y O *D sg13g2_o21ai_1
*CAP
1 *1304:A2 0.000559982
2 *1296:Y 0.000559982
3 *1304:A2 *1287:A 0.000234832
4 *1304:A2 *1303:A2 3.95798e-05
5 *1304:A2 *1334:A0 0
6 *1304:A2 *1334:A1 0
7 *1304:A2 *360:10 0
8 *1304:A2 *363:10 0
9 *1304:A2 *365:14 0
10 *1304:A2 *1002:108 0
11 *1304:A2 *1006:40 0.000128161
12 *1304:A2 *1007:25 0
13 *1289:A1 *1304:A2 4.30888e-05
14 *1296:A2 *1304:A2 0.000112599
15 *1304:A1 *1304:A2 1.85915e-05
16 *316:14 *1304:A2 0.000101779
17 *316:27 *1304:A2 2.48589e-05
*RES
1 *1296:Y *1304:A2 45.5308 
*END

*D_NET *326 0.000499647
*CONN
*I *1298:B1 I *D sg13g2_o21ai_1
*I *1297:Y O *D sg13g2_nor2b_1
*CAP
1 *1298:B1 0.00018336
2 *1297:Y 0.00018336
3 *1298:B1 *1297:A 7.53965e-05
4 *1298:B1 *1298:A1 3.53549e-05
5 *1298:B1 *1300:A1 0
6 *1298:B1 *1327:A 0
7 *1298:B1 *1327:B 0
8 *1298:B1 *1328:A2 0
9 *1298:B1 *327:10 2.21754e-05
10 *1298:B1 *328:8 0
11 *1298:B1 *329:10 0
12 *1298:B1 *1005:21 0
13 *311:30 *1298:B1 0
*RES
1 *1297:Y *1298:B1 41.8392 
*END

*D_NET *327 0.000993765
*CONN
*I *1304:B1 I *D sg13g2_a221oi_1
*I *1298:Y O *D sg13g2_o21ai_1
*CAP
1 *1304:B1 0
2 *1298:Y 0.000445626
3 *327:10 0.000445626
4 *327:10 *1299:B 0
5 *1297:B_N *327:10 0
6 *1298:B1 *327:10 2.21754e-05
7 *22:41 *327:10 0
8 *302:18 *327:10 0
9 *311:30 *327:10 0
10 *316:14 *327:10 8.03372e-05
11 *316:37 *327:10 0
*RES
1 *1298:Y *327:10 43.5288 
2 *327:10 *1304:B1 40 
*END

*D_NET *328 0.00109995
*CONN
*I *1326:B I *D sg13g2_nor2_1
*I *1300:A2 I *D sg13g2_a21oi_1
*I *1299:Y O *D sg13g2_nand2b_1
*CAP
1 *1326:B 0.000228793
2 *1300:A2 0
3 *1299:Y 0.000175625
4 *328:8 0.000404418
5 *1326:B *1299:B 0.000150931
6 *1326:B *1300:A1 3.13914e-05
7 *1326:B *1328:A1 6.87299e-05
8 *1326:B *329:10 0
9 *1326:B *1005:30 0
10 *328:8 *1299:B 0
11 *328:8 *1300:A1 1.52019e-05
12 *1298:B1 *328:8 0
13 *21:45 *1326:B 0
14 *316:37 *1326:B 2.48589e-05
*RES
1 *1299:Y *328:8 21.6016 
2 *328:8 *1300:A2 20 
3 *328:8 *1326:B 22.5344 
*END

*D_NET *329 0.000991763
*CONN
*I *1304:B2 I *D sg13g2_a221oi_1
*I *1300:Y O *D sg13g2_a21oi_1
*CAP
1 *1304:B2 0
2 *1300:Y 0.000301236
3 *329:10 0.000301236
4 *329:10 *1300:A1 0
5 *1297:B_N *329:10 0
6 *1298:B1 *329:10 0
7 *1326:B *329:10 0
8 *1336:C *329:10 0
9 *21:45 *329:10 0.000341235
10 *316:14 *329:10 4.8056e-05
*RES
1 *1300:Y *329:10 42.7368 
2 *329:10 *1304:B2 40 
*END

*D_NET *330 0.000391396
*CONN
*I *1303:A1 I *D sg13g2_a21oi_1
*I *1301:Y O *D sg13g2_o21ai_1
*CAP
1 *1303:A1 0
2 *1301:Y 0.000117838
3 *330:10 0.000117838
4 *330:10 *1299:B 0
5 *330:10 *363:10 7.51291e-05
6 *315:22 *330:10 8.059e-05
*RES
1 *1301:Y *330:10 41.1264 
2 *330:10 *1303:A1 40 
*END

*D_NET *331 0.000743445
*CONN
*I *1303:A2 I *D sg13g2_a21oi_1
*I *1302:X O *D sg13g2_or3_1
*CAP
1 *1303:A2 0.000260733
2 *1302:X 0.000260733
3 *1303:A2 *332:28 4.79124e-05
4 *1303:A2 *363:10 0
5 *1289:A1 *1303:A2 0
6 *1303:B1 *1303:A2 0.000134488
7 *1304:A2 *1303:A2 3.95798e-05
*RES
1 *1302:X *1303:A2 42.4288 
*END

*D_NET *332 0.00229489
*CONN
*I *1340:A I *D sg13g2_inv_1
*I *1338:A I *D sg13g2_or4_1
*I *1304:C1 I *D sg13g2_a221oi_1
*I *1303:Y O *D sg13g2_a21oi_1
*CAP
1 *1340:A 0
2 *1338:A 0.000189394
3 *1304:C1 0.000272577
4 *1303:Y 0.000476393
5 *332:28 0.000393211
6 *1304:C1 *1287:A 0
7 *1304:C1 *333:12 0
8 *1304:C1 *1008:40 0
9 *1338:A *1338:B 0
10 *1338:A *1341:A 0
11 *1338:A *363:36 4.8613e-05
12 *1338:A *1004:56 0
13 *332:28 *1341:A 0
14 *332:28 *1342:C1 0
15 *332:28 *363:10 0
16 *332:28 *363:16 0
17 *332:28 *1004:56 0
18 *1289:A1 *1304:C1 0.000207238
19 *1289:A1 *1338:A 0.000478353
20 *1303:A2 *332:28 4.79124e-05
21 *1304:A1 *1304:C1 0
22 *1304:A1 *1338:A 0
23 *316:14 *1304:C1 0
24 *316:18 *1304:C1 0.000128161
25 *316:27 *1304:C1 5.30323e-05
*RES
1 *1303:Y *1304:C1 42.508 
2 *1303:Y *332:28 21.936 
3 *332:28 *1338:A 22.4046 
4 *332:28 *1340:A 20 
*END

*D_NET *333 0.00243646
*CONN
*I *1305:B1 I *D sg13g2_o21ai_1
*I *1304:Y O *D sg13g2_a221oi_1
*CAP
1 *1305:B1 0
2 *1304:Y 0.000495454
3 *333:12 0.000495454
4 *333:12 *363:36 1.54007e-05
5 *333:12 *365:14 0.000904501
6 *333:12 *1001:31 0
7 *1289:A1 *333:12 0.000446584
8 *1304:C1 *333:12 0
9 *322:14 *333:12 7.90636e-05
10 *322:29 *333:12 0
*RES
1 *1304:Y *333:12 45.148 
2 *333:12 *1305:B1 40 
*END

*D_NET *334 0.00895483
*CONN
*I *1346:C I *D sg13g2_or4_1
*I *1357:A0 I *D sg13g2_mux2_1
*I *1307:S I *D sg13g2_mux2_1
*I *1314:A1 I *D sg13g2_a221oi_1
*I *1312:S I *D sg13g2_mux2_1
*I *1305:Y O *D sg13g2_o21ai_1
*CAP
1 *1346:C 0
2 *1357:A0 2.47667e-05
3 *1307:S 2.42833e-05
4 *1314:A1 0
5 *1312:S 0.000326346
6 *1305:Y 0.000222115
7 *334:92 0.000331967
8 *334:82 0.000654683
9 *334:65 0.000669961
10 *334:43 0.000662785
11 *334:20 0.00121346
12 *334:14 0.000304828
13 *334:12 0.001379
14 *334:8 0.00122242
15 *1312:S *1282:B 0
16 *1312:S *1308:A 0
17 *1312:S *1309:B_N 0
18 *1312:S *1312:A1 0
19 *1312:S *338:8 0
20 *1312:S *341:10 0
21 *1312:S *1000:25 0
22 *1357:A0 *912:18 6.1871e-05
23 *334:8 *1329:B1 0
24 *334:8 *358:10 0.000177877
25 *334:12 *1291:C 0
26 *334:12 *344:12 0
27 *334:12 *1005:40 0
28 *334:12 *1009:27 0
29 *334:20 *349:10 4.72572e-05
30 *334:43 *1311:B 7.53965e-05
31 *334:43 *1314:B1 2.65716e-05
32 *334:43 *338:16 0.000216715
33 *334:43 *338:31 0
34 *334:43 *341:10 0
35 *334:43 *383:42 0
36 *334:43 *383:46 0
37 *334:65 *1308:B 0
38 *334:65 *1322:B 0
39 *334:65 *1323:A 0
40 *334:65 *1347:A1 0
41 *334:65 *1362:A1 0
42 *334:65 *344:33 0
43 *334:65 *350:10 0
44 *334:65 *912:18 0.000229125
45 *334:82 *358:10 7.38683e-05
46 *334:82 *1009:54 0
47 *334:92 *1342:B2 0
48 *334:92 *1342:A1 0
49 *334:92 *1346:D 0
50 *334:92 *371:10 0.000402625
51 *334:92 *1004:97 0
52 *1279:B *334:12 0
53 *1281:B1 *334:8 0
54 *1281:B1 *334:82 0
55 *1281:A1 *334:8 0
56 *1293:B1 *334:92 0
57 *1293:A2 *334:92 4.66158e-05
58 *1307:A1 *1307:S 7.51688e-05
59 *1307:A1 *334:65 0
60 *1312:A0 *1312:S 7.51688e-05
61 *1325:A *334:82 0
62 *1343:B *334:92 0
63 *1346:B *334:92 1.54556e-05
64 *1358:A *334:43 0
65 *1869:CLK *1357:A0 0
66 *21:47 *334:12 0
67 *50:10 *334:65 0.000394495
68 *305:45 *334:82 0
69 *310:10 *334:12 0
70 *310:12 *334:12 0
71 *312:6 *334:8 0
*RES
1 *1305:Y *334:8 22.0504 
2 *334:8 *334:12 25.8168 
3 *334:12 *334:14 0.4576 
4 *334:14 *334:20 22.0504 
5 *334:20 *1312:S 22.684 
6 *334:20 *334:43 45.4472 
7 *334:43 *1314:A1 20 
8 *334:14 *1307:S 40.2992 
9 *334:12 *334:65 46.248 
10 *334:65 *1357:A0 40.2464 
11 *334:8 *334:82 42.9216 
12 *334:82 *334:92 42.7148 
13 *334:92 *1346:C 20 
*END

*D_NET *336 0.000399607
*CONN
*I *1308:B I *D sg13g2_xor2_1
*I *1307:X O *D sg13g2_mux2_1
*CAP
1 *1308:B 0.000199804
2 *1307:X 0.000199804
3 *1308:B *1308:A 0
4 *1308:B *1348:A1 0
5 *1308:B *1362:A1 0
6 *1308:B *350:10 0
7 *334:65 *1308:B 0
*RES
1 *1307:X *1308:B 41.8128 
*END

*D_NET *337 0.00138205
*CONN
*I *1316:A1 I *D sg13g2_a21oi_1
*I *1317:A I *D sg13g2_nor2_1
*I *1308:X O *D sg13g2_xor2_1
*CAP
1 *1316:A1 6.15891e-05
2 *1317:A 0
3 *1308:X 4.43298e-05
4 *337:12 0.000257731
5 *337:6 0.00036365
6 *1316:A1 *1316:B1 4.53106e-05
7 *1316:A1 *1348:A1 7.53965e-05
8 *1316:A1 *1357:S 0
9 *337:6 *1316:B1 0.000128161
10 *337:12 *1316:A2 0
11 *337:12 *343:10 0
12 *337:12 *383:46 0.000405881
*RES
1 *1308:X *337:6 20.5104 
2 *337:6 *337:12 42.3056 
3 *337:12 *1317:A 20 
4 *337:6 *1316:A1 20.7216 
*END

*D_NET *338 0.00266853
*CONN
*I *1314:A2 I *D sg13g2_a221oi_1
*I *1321:C I *D sg13g2_nor3_2
*I *1309:Y O *D sg13g2_nor2b_1
*CAP
1 *1314:A2 0
2 *1321:C 0
3 *1309:Y 0.000494705
4 *338:31 0.000442079
5 *338:16 0.000134035
6 *338:8 0.00107082
7 *338:8 *1309:B_N 0
8 *338:8 *1312:A1 0
9 *338:8 *341:10 0
10 *338:8 *984:192 0
11 *338:16 *1308:A 3.86694e-05
12 *338:16 *341:10 0.000112857
13 *338:31 *1308:A 0
14 *338:31 *1314:B1 8.34842e-05
15 *338:31 *350:10 0
16 *338:31 *383:42 7.51688e-05
17 *338:31 *383:46 0
18 *1312:S *338:8 0
19 *183:61 *338:31 0
20 *334:43 *338:16 0.000216715
21 *334:43 *338:31 0
*RES
1 *1309:Y *338:8 24.3736 
2 *338:8 *338:16 41.3508 
3 *338:16 *1321:C 20 
4 *338:8 *338:31 43.7818 
5 *338:31 *1314:A2 20 
*END

*D_NET *339 0.00366252
*CONN
*I *1313:B I *D sg13g2_and2_1
*I *1311:B I *D sg13g2_or2_1
*I *1310:Y O *D sg13g2_nor3_1
*CAP
1 *1313:B 0.000122436
2 *1311:B 0.000443446
3 *1310:Y 0.000512507
4 *339:14 0.000745696
5 *339:10 0.000692321
6 *1311:B *1314:B1 0
7 *1311:B *1360:A2 0
8 *1311:B *349:10 4.8613e-05
9 *1311:B *383:27 0
10 *1311:B *383:42 0.000161099
11 *1311:B *984:192 0
12 *1313:B *673:10 0
13 *1313:B *984:192 0
14 *339:10 *670:10 0
15 *339:10 *1117:8 0
16 *339:14 *673:10 0
17 *1313:A *1313:B 0
18 *1320:A *1311:B 0.000498389
19 *1320:A *1313:B 0.000287447
20 *1358:A *1311:B 0
21 *23:10 *1311:B 7.51684e-05
22 *23:10 *339:10 0
23 *23:10 *339:14 0
24 *113:10 *339:10 0
25 *183:12 *339:10 0
26 *183:12 *339:14 0
27 *183:22 *339:10 0
28 *334:43 *1311:B 7.53965e-05
*RES
1 *1310:Y *339:10 44.7432 
2 *339:10 *339:14 21.5664 
3 *339:14 *1311:B 25.1106 
4 *339:14 *1313:B 21.3552 
*END

*D_NET *340 0.000800928
*CONN
*I *1314:B1 I *D sg13g2_a221oi_1
*I *1311:X O *D sg13g2_or2_1
*CAP
1 *1314:B1 0.000175062
2 *1311:X 0.000175062
3 *1314:B1 *1356:S 0
4 *1314:B1 *343:10 0.000340748
5 *1314:B1 *383:42 0
6 *1314:B1 *984:192 0
7 *1311:B *1314:B1 0
8 *334:43 *1314:B1 2.65716e-05
9 *338:31 *1314:B1 8.34842e-05
*RES
1 *1311:X *1314:B1 41.7776 
*END

*D_NET *341 0.00180265
*CONN
*I *1314:B2 I *D sg13g2_a221oi_1
*I *1312:X O *D sg13g2_mux2_1
*CAP
1 *1314:B2 0
2 *1312:X 0.000578932
3 *341:10 0.000578932
4 *1312:S *341:10 0
5 *1358:A *341:10 1.50728e-05
6 *310:14 *341:10 0.000405449
7 *310:16 *341:10 0.000111405
8 *334:43 *341:10 0
9 *338:8 *341:10 0
10 *338:16 *341:10 0.000112857
*RES
1 *1312:X *341:10 44.6376 
2 *341:10 *1314:B2 40 
*END

*D_NET *342 0.000446318
*CONN
*I *1314:C1 I *D sg13g2_a221oi_1
*I *1313:X O *D sg13g2_and2_1
*CAP
1 *1314:C1 0.000223159
2 *1313:X 0.000223159
3 *1313:A *1314:C1 0
4 *1320:A *1314:C1 0
*RES
1 *1313:X *1314:C1 41.6896 
*END

*D_NET *343 0.00157871
*CONN
*I *1316:A2 I *D sg13g2_a21oi_1
*I *1317:B I *D sg13g2_nor2_1
*I *1314:Y O *D sg13g2_a221oi_1
*CAP
1 *1316:A2 0.000264571
2 *1317:B 0
3 *1314:Y 0.000290218
4 *343:10 0.000554789
5 *1316:A2 *1348:A1 0.00012839
6 *1316:A2 *346:10 0
7 *1316:A2 *377:10 0
8 *343:10 *1356:S 0
9 *343:10 *377:10 0
10 *343:10 *383:46 0
11 *343:10 *984:192 0
12 *343:10 *984:207 0
13 *1314:B1 *343:10 0.000340748
14 *337:12 *1316:A2 0
15 *337:12 *343:10 0
*RES
1 *1314:Y *343:10 42.9744 
2 *343:10 *1317:B 40 
3 *343:10 *1316:A2 42.4464 
*END

*D_NET *344 0.00363171
*CONN
*I *1322:A I *D sg13g2_xnor2_1
*I *1362:A2 I *D sg13g2_o21ai_1
*I *1316:B1 I *D sg13g2_a21oi_1
*I *1325:B I *D sg13g2_and2_1
*I *1315:Y O *D sg13g2_nor2_2
*CAP
1 *1322:A 0
2 *1362:A2 0
3 *1316:B1 0.000225193
4 *1325:B 0
5 *1315:Y 0.000202651
6 *344:33 0.00051648
7 *344:25 0.000559489
8 *344:12 0.000231918
9 *344:6 0.000702771
10 *1316:B1 *1361:B 6.46828e-05
11 *1316:B1 *350:10 0
12 *1316:B1 *383:46 0.000178091
13 *344:6 *1003:33 0
14 *344:12 *1291:C 0
15 *344:25 *350:10 4.7642e-05
16 *344:25 *350:25 0
17 *344:25 *1003:33 0
18 *344:25 *1003:37 0.000112643
19 *344:33 *1322:B 1.53311e-05
20 *344:33 *1323:A 0.000127923
21 *344:33 *350:10 0
22 *1316:A1 *1316:B1 4.53106e-05
23 *1319:A2 *344:25 0
24 *50:10 *344:33 0
25 *183:61 *1316:B1 0
26 *310:10 *344:12 0.000275383
27 *310:12 *344:12 4.77421e-05
28 *310:62 *344:6 7.51291e-05
29 *310:62 *344:25 7.51688e-05
30 *315:48 *344:6 0
31 *334:12 *344:12 0
32 *334:65 *344:33 0
33 *337:6 *1316:B1 0.000128161
*RES
1 *1315:Y *344:6 21.5664 
2 *344:6 *344:12 42.1208 
3 *344:12 *1325:B 20 
4 *344:6 *344:25 42.3144 
5 *344:25 *344:33 22.772 
6 *344:33 *1316:B1 42.2572 
7 *344:33 *1362:A2 40 
8 *344:25 *1322:A 20 
*END

*D_NET *345 0.000375337
*CONN
*I *1348:A1 I *D sg13g2_o21ai_1
*I *1316:Y O *D sg13g2_a21oi_1
*CAP
1 *1348:A1 8.57751e-05
2 *1316:Y 8.57751e-05
3 *1348:A1 *1357:S 0
4 *1348:A1 *346:10 0
5 *1308:B *1348:A1 0
6 *1316:A1 *1348:A1 7.53965e-05
7 *1316:A2 *1348:A1 0.00012839
*RES
1 *1316:Y *1348:A1 41.177 
*END

*D_NET *346 0.00071675
*CONN
*I *1348:A2 I *D sg13g2_o21ai_1
*I *1317:Y O *D sg13g2_nor2_1
*CAP
1 *1348:A2 0
2 *1317:Y 0.000214348
3 *346:10 0.000214348
4 *346:10 *377:10 0
5 *1316:A2 *346:10 0
6 *1348:A1 *346:10 0
7 *183:61 *346:10 0.000288053
*RES
1 *1317:Y *346:10 42.3408 
2 *346:10 *1348:A2 40 
*END

*D_NET *347 0.000798321
*CONN
*I *1319:B1 I *D sg13g2_o21ai_1
*I *1318:Y O *D sg13g2_nand2_1
*CAP
1 *1319:B1 0
2 *1318:Y 0.000169255
3 *347:10 0.000169255
4 *347:10 *350:25 0.000112425
5 *1319:A1 *347:10 0.000112932
6 *1319:A2 *347:10 0.000234455
7 *315:48 *347:10 0
*RES
1 *1318:Y *347:10 41.7864 
2 *347:10 *1319:B1 40 
*END

*D_NET *348 0.000914843
*CONN
*I *1323:A I *D sg13g2_xnor2_1
*I *1319:Y O *D sg13g2_o21ai_1
*CAP
1 *1323:A 0.000348375
2 *1319:Y 0.000348375
3 *1323:A *1323:B 9.01708e-05
4 *1323:A *1347:A1 0
5 *1319:A1 *1323:A 0
6 *334:65 *1323:A 0
7 *344:33 *1323:A 0.000127923
*RES
1 *1319:Y *1323:A 43.608 
*END

*D_NET *349 0.00110858
*CONN
*I *1321:B I *D sg13g2_nor3_2
*I *1320:Y O *D sg13g2_inv_1
*CAP
1 *1321:B 0
2 *1320:Y 0.000506354
3 *349:10 0.000506354
4 *1311:B *349:10 4.8613e-05
5 *1312:A0 *349:10 0
6 *1358:A *349:10 0
7 *310:14 *349:10 0
8 *334:20 *349:10 4.72572e-05
*RES
1 *1320:Y *349:10 44.1624 
2 *349:10 *1321:B 40 
*END

*D_NET *350 0.00654477
*CONN
*I *1335:A I *D sg13g2_nor2_1
*I *1338:B I *D sg13g2_or4_1
*I *1322:B I *D sg13g2_xnor2_1
*I *1321:Y O *D sg13g2_nor3_2
*CAP
1 *1335:A 0.000459185
2 *1338:B 6.41194e-05
3 *1322:B 8.95267e-05
4 *1321:Y 0.000439613
5 *350:31 0.0005088
6 *350:25 0.00169133
7 *350:10 0.0013166
8 *1322:B *1003:33 0
9 *1335:A *1335:B 0
10 *1335:A *1339:A1 0
11 *1335:A *1342:B2 0
12 *1335:A *1343:A 0.000128161
13 *1335:A *371:10 0.000287448
14 *1335:A *374:10 0
15 *1335:A *1004:97 7.89572e-05
16 *1338:B *1341:A 2.88281e-05
17 *1338:B *363:16 0
18 *1338:B *363:36 0
19 *350:10 *1308:A 0.0001818
20 *350:25 *1291:C 0
21 *350:25 *354:10 0.000661923
22 *350:25 *1003:37 0
23 *350:25 *1004:97 0.000433077
24 *350:25 *1009:42 0
25 *350:31 *1007:55 0
26 *1289:A1 *1338:B 0
27 *1307:A1 *350:10 0
28 *1308:B *350:10 0
29 *1316:B1 *350:10 0
30 *1319:A1 *350:25 0
31 *1337:A *1335:A 0
32 *1338:A *1338:B 0
33 *22:48 *350:31 0
34 *22:73 *350:31 0
35 *305:20 *350:31 0
36 *310:12 *350:10 0
37 *310:14 *350:10 0
38 *334:65 *1322:B 0
39 *334:65 *350:10 0
40 *338:31 *350:10 0
41 *344:25 *350:10 4.7642e-05
42 *344:25 *350:25 0
43 *344:33 *1322:B 1.53311e-05
44 *344:33 *350:10 0
45 *347:10 *350:25 0.000112425
*RES
1 *1321:Y *350:10 44.3736 
2 *350:10 *1322:B 40.7832 
3 *350:10 *350:25 7.04 
4 *350:25 *350:31 43.4672 
5 *350:31 *1338:B 40.5016 
6 *350:25 *1335:A 44.356 
*END

*D_NET *351 0.000388048
*CONN
*I *1323:B I *D sg13g2_xnor2_1
*I *1322:Y O *D sg13g2_xnor2_1
*CAP
1 *1323:B 0.000141273
2 *1322:Y 0.000141273
3 *1323:B *1347:A1 1.53311e-05
4 *1323:A *1323:B 9.01708e-05
*RES
1 *1322:Y *1323:B 41.3904 
*END

*D_NET *352 0.000454806
*CONN
*I *1347:A1 I *D sg13g2_o21ai_1
*I *1323:Y O *D sg13g2_xnor2_1
*CAP
1 *1347:A1 0.000196731
2 *1323:Y 0.000196731
3 *1347:A1 *1347:A2 4.6014e-05
4 *1319:A1 *1347:A1 0
5 *1323:A *1347:A1 0
6 *1323:B *1347:A1 1.53311e-05
7 *334:65 *1347:A1 0
*RES
1 *1323:Y *1347:A1 42.101 
*END

*D_NET *353 0.0013467
*CONN
*I *1342:A1 I *D sg13g2_a221oi_1
*I *1324:Y O *D sg13g2_o21ai_1
*CAP
1 *1342:A1 2.84847e-05
2 *1324:Y 0.00028908
3 *353:10 0.000317565
4 *1342:A1 *1342:B2 0
5 *1342:A1 *1346:D 0
6 *353:10 *1280:A 6.96049e-05
7 *353:10 *1291:C 0.000272372
8 *353:10 *354:10 0.000272372
9 *1280:C *353:10 2.20968e-05
10 *1281:B1 *353:10 0
11 *1325:A *353:10 0
12 *305:45 *353:10 7.51291e-05
13 *334:92 *1342:A1 0
*RES
1 *1324:Y *353:10 42.7104 
2 *353:10 *1342:A1 40.2728 
*END

*D_NET *354 0.00241546
*CONN
*I *1342:A2 I *D sg13g2_a221oi_1
*I *1325:X O *D sg13g2_and2_1
*CAP
1 *1342:A2 1.80986e-05
2 *1325:X 0.000424263
3 *354:10 0.000442361
4 *1342:A2 *1346:D 4.30888e-05
5 *354:10 *1279:A 7.51291e-05
6 *354:10 *1291:C 0.000274665
7 *354:10 *1009:27 0.000181422
8 *1281:B1 *354:10 2.21361e-05
9 *350:25 *354:10 0.000661923
10 *353:10 *354:10 0.000272372
*RES
1 *1325:X *354:10 44.5056 
2 *354:10 *1342:A2 40.1716 
*END

*D_NET *355 0.000332973
*CONN
*I *1328:A1 I *D sg13g2_o21ai_1
*I *1326:Y O *D sg13g2_nor2_1
*CAP
1 *1328:A1 0.000132122
2 *1326:Y 0.000132122
3 *1328:A1 *1328:A2 0
4 *1328:A1 *1329:B1 0
5 *1326:B *1328:A1 6.87299e-05
6 *21:45 *1328:A1 0
*RES
1 *1326:Y *1328:A1 41.1506 
*END

*D_NET *356 0.000552984
*CONN
*I *1328:A2 I *D sg13g2_o21ai_1
*I *1327:Y O *D sg13g2_nor3_1
*CAP
1 *1328:A2 0.000244935
2 *1327:Y 0.000244935
3 *1328:A2 *1299:B 0
4 *1328:A2 *1327:B 4.79124e-05
5 *1298:B1 *1328:A2 0
6 *1305:A1 *1328:A2 0
7 *1328:B1 *1328:A2 1.52019e-05
8 *1328:A1 *1328:A2 0
9 *312:6 *1328:A2 0
10 *316:37 *1328:A2 0
*RES
1 *1327:Y *1328:A2 42.1912 
*END

*D_NET *357 0.000931625
*CONN
*I *1329:B1 I *D sg13g2_o21ai_1
*I *1328:Y O *D sg13g2_o21ai_1
*CAP
1 *1329:B1 0.000280595
2 *1328:Y 0.000280595
3 *1305:A1 *1329:B1 0
4 *1324:B1 *1329:B1 0
5 *1328:B1 *1329:B1 1.49483e-05
6 *1328:A1 *1329:B1 0
7 *1329:A1 *1329:B1 0
8 *21:45 *1329:B1 0
9 *305:32 *1329:B1 0
10 *322:14 *1329:B1 0.000340356
11 *322:29 *1329:B1 1.51298e-05
12 *334:8 *1329:B1 0
*RES
1 *1328:Y *1329:B1 42.7192 
*END

*D_NET *358 0.00332107
*CONN
*I *1341:B I *D sg13g2_nor2_1
*I *1342:B1 I *D sg13g2_a221oi_1
*I *1329:Y O *D sg13g2_o21ai_1
*CAP
1 *1341:B 0.000173847
2 *1342:B1 0.000228566
3 *1329:Y 0.000306845
4 *358:18 0.000560619
5 *358:10 0.00046505
6 *1341:B *1337:B 7.47517e-05
7 *1341:B *363:10 0
8 *1341:B *1004:56 0
9 *1341:B *1004:62 0
10 *1342:B1 *1342:C1 0.000287258
11 *358:18 *1337:B 0
12 *358:18 *365:14 0
13 *358:18 *367:14 0.000180816
14 *1324:B1 *358:10 0.000209018
15 *21:47 *358:10 0
16 *22:56 *358:10 0
17 *22:73 *358:10 0.000240554
18 *305:10 *1341:B 6.55649e-05
19 *305:12 *1341:B 0.00014422
20 *305:12 *358:18 0.00011012
21 *318:12 *358:18 2.20968e-05
22 *322:6 *358:10 0
23 *334:8 *358:10 0.000177877
24 *334:82 *358:10 7.38683e-05
*RES
1 *1329:Y *358:10 42.8688 
2 *358:10 *358:18 41.5488 
3 *358:18 *1342:B1 42.0504 
4 *358:18 *1341:B 41.7952 
*END

*D_NET *359 0.00156245
*CONN
*I *1331:B2 I *D sg13g2_a22oi_1
*I *1330:Y O *D sg13g2_nor2_1
*CAP
1 *1331:B2 6.42765e-05
2 *1330:Y 0.000323536
3 *359:14 0.0001463
4 *359:8 0.00040556
5 *1331:B2 *360:10 2.20968e-05
6 *359:8 *1002:108 0.000210626
7 *359:8 *1006:60 0
8 *359:8 *1008:55 0.000306584
9 *1331:A2 *1331:B2 3.59073e-05
10 *1336:C *359:8 4.7566e-05
*RES
1 *1330:Y *359:8 43.0448 
2 *359:8 *359:14 40.7216 
3 *359:14 *1331:B2 40.5104 
*END

*D_NET *360 0.00108244
*CONN
*I *1334:A0 I *D sg13g2_mux2_1
*I *1331:Y O *D sg13g2_a22oi_1
*CAP
1 *1334:A0 0.00023049
2 *1331:Y 0.00022193
3 *360:10 0.00045242
4 *1334:A0 *1302:C 0
5 *1334:A0 *1002:108 0
6 *1334:A0 *1007:25 0
7 *360:10 *1331:A1 0
8 *360:10 *1006:36 0
9 *360:10 *1006:60 0
10 *360:10 *1008:40 7.53572e-05
11 *1304:A2 *1334:A0 0
12 *1304:A2 *360:10 0
13 *1331:B2 *360:10 2.20968e-05
14 *22:20 *360:10 0
15 *315:93 *360:10 8.01443e-05
*RES
1 *1331:Y *360:10 42.0504 
2 *360:10 *1334:A0 41.7864 
*END

*D_NET *361 0.00175324
*CONN
*I *1345:A2 I *D sg13g2_a21o_1
*I *1333:B1 I *D sg13g2_o21ai_1
*I *1332:Y O *D sg13g2_nor2_1
*CAP
1 *1345:A2 0.000208458
2 *1333:B1 0.000296926
3 *1332:Y 0
4 *361:4 0.000505384
5 *1333:B1 *1345:B1 0
6 *1333:B1 *1761:A 0.000100344
7 *1333:B1 *1001:46 0
8 *1333:B1 *1002:91 0.000447716
9 *1345:A2 *1345:B1 0.000194412
10 *1345:A2 *374:10 0
11 *1345:A2 *1001:46 0
12 *1333:A2 *1333:B1 0
*RES
1 *1332:Y *361:4 20 
2 *361:4 *1333:B1 23.3792 
3 *361:4 *1345:A2 22.2528 
*END

*D_NET *362 0.000552231
*CONN
*I *1334:A1 I *D sg13g2_mux2_1
*I *1333:Y O *D sg13g2_o21ai_1
*CAP
1 *1334:A1 9.05888e-05
2 *1333:Y 0.000185527
3 *362:8 0.000276116
4 *1334:A1 *1007:25 0
5 *362:8 *1002:10 0
6 *362:8 *1002:108 0
7 *1304:A2 *1334:A1 0
*RES
1 *1333:Y *362:8 41.7512 
2 *362:8 *1334:A1 40.7216 
*END

*D_NET *363 0.00579665
*CONN
*I *1338:C I *D sg13g2_or4_1
*I *1335:B I *D sg13g2_nor2_1
*I *1334:X O *D sg13g2_mux2_1
*CAP
1 *1338:C 0
2 *1335:B 5.00516e-05
3 *1334:X 0.000553954
4 *363:36 0.0010829
5 *363:16 0.00108175
6 *363:10 0.000602849
7 *1335:B *1339:A1 2.21754e-05
8 *363:10 *1276:B 0
9 *363:10 *1301:B1 7.51684e-05
10 *363:10 *1301:A1 0
11 *363:10 *1302:B 3.49263e-05
12 *363:10 *1302:C 0
13 *363:10 *1337:B 0.000210493
14 *363:10 *1004:35 0
15 *363:10 *1004:56 0.000287448
16 *363:10 *1007:25 0
17 *363:10 *1007:38 0
18 *363:16 *1341:A 4.8613e-05
19 *363:36 *1339:A1 0
20 *363:36 *365:14 0
21 *363:36 *367:14 0.00124499
22 *363:36 *1004:56 0
23 *1289:A1 *363:36 0.000127972
24 *1293:A1 *363:36 0
25 *1303:A2 *363:10 0
26 *1304:A2 *363:10 0
27 *1324:B1 *363:36 0
28 *1335:A *1335:B 0
29 *1338:A *363:36 4.8613e-05
30 *1338:B *363:16 0
31 *1338:B *363:36 0
32 *1341:B *363:10 0
33 *21:45 *363:36 0.000234226
34 *330:10 *363:10 7.51291e-05
35 *332:28 *363:10 0
36 *332:28 *363:16 0
37 *333:12 *363:36 1.54007e-05
*RES
1 *1334:X *363:10 44.9808 
2 *363:10 *363:16 20.4664 
3 *363:16 *363:36 49.8648 
4 *363:36 *1335:B 20.572 
5 *363:16 *1338:C 20 
*END

*D_NET *364 0.000714804
*CONN
*I *1339:A1 I *D sg13g2_o21ai_1
*I *1335:Y O *D sg13g2_nor2_1
*CAP
1 *1339:A1 0.000272074
2 *1335:Y 0.000272074
3 *1339:A1 *1342:B2 0.000126383
4 *1339:A1 *367:14 0
5 *1339:A1 *375:10 2.20968e-05
6 *1335:A *1339:A1 0
7 *1335:B *1339:A1 2.21754e-05
8 *363:36 *1339:A1 0
*RES
1 *1335:Y *1339:A1 42.4178 
*END

*D_NET *365 0.0062259
*CONN
*I *1337:B I *D sg13g2_nand2_1
*I *1338:D I *D sg13g2_or4_1
*I *1336:Y O *D sg13g2_nor3_1
*CAP
1 *1337:B 0.000843834
2 *1338:D 0
3 *1336:Y 0.000506768
4 *365:14 0.0013506
5 *1337:B *1288:A 1.52019e-05
6 *1337:B *1291:B 0.000340669
7 *1337:B *1341:A 0
8 *1337:B *374:10 0
9 *1337:B *1001:31 0.000259968
10 *1337:B *1001:46 4.77786e-05
11 *1337:B *1004:76 7.05758e-05
12 *365:14 *1287:A 0
13 *365:14 *1001:31 0.000177422
14 *365:14 *1008:40 0
15 *1304:A2 *365:14 0
16 *1337:A *1337:B 0
17 *1341:B *1337:B 7.47517e-05
18 *1343:B *1337:B 0
19 *21:45 *365:14 0.000977662
20 *305:10 *1337:B 0.00044567
21 *321:10 *1337:B 0
22 *333:12 *365:14 0.000904501
23 *358:18 *1337:B 0
24 *358:18 *365:14 0
25 *363:10 *1337:B 0.000210493
26 *363:36 *365:14 0
*RES
1 *1336:Y *365:14 46.292 
2 *365:14 *1338:D 40 
3 *365:14 *1337:B 48.5712 
*END

*D_NET *366 0.000350244
*CONN
*I *1339:A2 I *D sg13g2_o21ai_1
*I *1337:Y O *D sg13g2_nand2_1
*CAP
1 *1339:A2 0
2 *1337:Y 0.000151124
3 *366:8 0.000151124
4 *366:8 *367:14 4.79958e-05
5 *1293:C1 *366:8 0
6 *321:10 *366:8 0
*RES
1 *1337:Y *366:8 41.3816 
2 *366:8 *1339:A2 40 
*END

*D_NET *367 0.00315669
*CONN
*I *1339:B1 I *D sg13g2_o21ai_1
*I *1338:X O *D sg13g2_or4_1
*CAP
1 *1339:B1 0
2 *1338:X 0.000572975
3 *367:14 0.000572975
4 *367:14 *375:10 7.51291e-05
5 *1339:A1 *367:14 0
6 *318:12 *367:14 0.000461811
7 *358:18 *367:14 0.000180816
8 *363:36 *367:14 0.00124499
9 *366:8 *367:14 4.79958e-05
*RES
1 *1338:X *367:14 46.556 
2 *367:14 *1339:B1 40 
*END

*D_NET *368 0.00176577
*CONN
*I *1342:B2 I *D sg13g2_a221oi_1
*I *1339:Y O *D sg13g2_o21ai_1
*CAP
1 *1342:B2 0.000580424
2 *1339:Y 0.000580424
3 *1342:B2 *1342:C1 1.52019e-05
4 *1342:B2 *375:10 2.20968e-05
5 *1335:A *1342:B2 0
6 *1339:A1 *1342:B2 0.000126383
7 *1342:A1 *1342:B2 0
8 *1346:B *1342:B2 0
9 *318:12 *1342:B2 0.000441235
10 *334:92 *1342:B2 0
*RES
1 *1339:Y *1342:B2 45.0776 
*END

*D_NET *369 0.000739238
*CONN
*I *1341:A I *D sg13g2_nor2_1
*I *1340:Y O *D sg13g2_inv_1
*CAP
1 *1341:A 0.00025878
2 *1340:Y 0.00025878
3 *1341:A *1301:B1 0
4 *1341:A *1342:C1 0.000144238
5 *1341:A *1004:56 0
6 *1341:A *1004:76 0
7 *1337:B *1341:A 0
8 *1338:A *1341:A 0
9 *1338:B *1341:A 2.88281e-05
10 *332:28 *1341:A 0
11 *363:16 *1341:A 4.8613e-05
*RES
1 *1340:Y *1341:A 42.4464 
*END

*D_NET *370 0.00119421
*CONN
*I *1342:C1 I *D sg13g2_a221oi_1
*I *1341:Y O *D sg13g2_nor2_1
*CAP
1 *1342:C1 0.000298145
2 *1341:Y 0.000298145
3 *1342:C1 *1004:62 0
4 *1289:A1 *1342:C1 0.000151225
5 *1341:A *1342:C1 0.000144238
6 *1342:B2 *1342:C1 1.52019e-05
7 *1342:B1 *1342:C1 0.000287258
8 *332:28 *1342:C1 0
*RES
1 *1341:Y *1342:C1 43.0624 
*END

*D_NET *371 0.00262952
*CONN
*I *1347:A2 I *D sg13g2_o21ai_1
*I *1342:Y O *D sg13g2_a221oi_1
*CAP
1 *1347:A2 6.88587e-05
2 *1342:Y 0.000736169
3 *371:10 0.000805028
4 *371:10 *1346:D 0.000181194
5 *371:10 *372:8 8.00835e-05
6 *371:10 *375:10 0
7 *1293:C1 *371:10 0
8 *1293:A2 *371:10 0
9 *1319:A1 *371:10 0
10 *1335:A *371:10 0.000287448
11 *1343:B *371:10 0
12 *1346:B *371:10 2.20968e-05
13 *1347:A1 *1347:A2 4.6014e-05
14 *334:92 *371:10 0.000402625
*RES
1 *1342:Y *371:10 46.8024 
2 *371:10 *1347:A2 40.7216 
*END

*D_NET *372 0.000529457
*CONN
*I *1346:A I *D sg13g2_or4_1
*I *1343:X O *D sg13g2_and2_1
*CAP
1 *1346:A 0
2 *1343:X 0.000119552
3 *372:8 0.000119552
4 *1293:C1 *372:8 4.78023e-05
5 *321:10 *372:8 0.000162467
6 *371:10 *372:8 8.00835e-05
*RES
1 *1343:X *372:8 41.1968 
2 *372:8 *1346:A 40 
*END

*D_NET *373 0.000594113
*CONN
*I *1345:B1 I *D sg13g2_a21o_1
*I *1344:Y O *D sg13g2_nor2_1
*CAP
1 *1345:B1 0.000162318
2 *1344:Y 0.000162318
3 *1345:B1 *374:10 0
4 *1345:B1 *1001:46 0
5 *1345:B1 *1007:86 7.50643e-05
6 *1333:B1 *1345:B1 0
7 *1344:B *1345:B1 0
8 *1345:A2 *1345:B1 0.000194412
*RES
1 *1344:Y *1345:B1 41.9008 
*END

*D_NET *374 0.00287648
*CONN
*I *1346:D I *D sg13g2_or4_1
*I *1345:X O *D sg13g2_a21o_1
*CAP
1 *1346:D 0.000117452
2 *1345:X 0.000710319
3 *374:10 0.000827771
4 *374:10 *1280:A 0
5 *374:10 *1291:C 0.000208429
6 *374:10 *1007:74 0
7 *374:10 *1007:104 7.90153e-05
8 *374:10 *1009:74 0.000249055
9 *1291:D *374:10 0
10 *1292:A1 *374:10 0
11 *1335:A *374:10 0
12 *1337:B *374:10 0
13 *1342:A1 *1346:D 0
14 *1342:A2 *1346:D 4.30888e-05
15 *1344:B *374:10 7.50649e-05
16 *1345:A2 *374:10 0
17 *1345:B1 *374:10 0
18 *1346:B *1346:D 0
19 *22:73 *374:10 7.51291e-05
20 *315:39 *374:10 0.000234793
21 *321:10 *374:10 7.51684e-05
22 *334:92 *1346:D 0
23 *371:10 *1346:D 0.000181194
*RES
1 *1345:X *374:10 46.5384 
2 *374:10 *1346:D 41.2056 
*END

*D_NET *375 0.0011391
*CONN
*I *1347:B1 I *D sg13g2_o21ai_1
*I *1346:X O *D sg13g2_or4_1
*CAP
1 *1347:B1 0
2 *1346:X 0.000509888
3 *375:10 0.000509888
4 *1293:C1 *375:10 0
5 *1319:A1 *375:10 0
6 *1339:A1 *375:10 2.20968e-05
7 *1342:B2 *375:10 2.20968e-05
8 *367:14 *375:10 7.51291e-05
9 *371:10 *375:10 0
*RES
1 *1346:X *375:10 45.0072 
2 *375:10 *1347:B1 40 
*END

*D_NET *376 0.00134464
*CONN
*I *1348:B1 I *D sg13g2_o21ai_1
*I *1347:Y O *D sg13g2_o21ai_1
*CAP
1 *1348:B1 0
2 *1347:Y 0.000533856
3 *376:10 0.000533856
4 *376:10 *1361:B 0
5 *376:10 *383:46 0
6 *1871:CLK *376:10 0
7 *50:10 *376:10 0.000276924
8 *183:61 *376:10 0
*RES
1 *1347:Y *376:10 45.0336 
2 *376:10 *1348:B1 40 
*END

*D_NET *377 0.00109375
*CONN
*I *1356:A0 I *D sg13g2_mux2_1
*I *1348:Y O *D sg13g2_o21ai_1
*CAP
1 *1356:A0 3.12525e-05
2 *1348:Y 0.000393916
3 *377:10 0.000425168
4 *377:10 *1357:S 0
5 *377:10 *984:207 0
6 *1316:A2 *377:10 0
7 *183:61 *377:10 0.000243414
8 *343:10 *377:10 0
9 *346:10 *377:10 0
*RES
1 *1348:Y *377:10 43.5288 
2 *377:10 *1356:A0 40.2464 
*END

*D_NET *378 0.00296525
*CONN
*I *1580:A I *D sg13g2_nor2_1
*I *1350:D I *D sg13g2_nor4_2
*I *1584:C I *D sg13g2_nor3_1
*I *1349:X O *D sg13g2_or2_1
*CAP
1 *1580:A 0
2 *1350:D 0.000210044
3 *1584:C 0.000111415
4 *1349:X 4.74951e-05
5 *378:20 0.00109156
6 *378:6 0.000817596
7 *1350:D *382:29 0.000128161
8 *1350:D *669:33 0
9 *1584:C *382:29 0
10 *378:6 *1580:B 2.21754e-05
11 *378:20 *1349:B 0
12 *378:20 *1580:B 3.7631e-05
13 *378:20 *382:18 0
14 *378:20 *665:8 0
15 *378:20 *667:8 0.000112679
16 *378:20 *667:16 0
17 *378:20 *667:24 0
18 *1581:B *378:20 0
19 *1582:B *378:20 0
20 *1584:B *1350:D 0.000210939
21 *1584:B *1584:C 0.000175557
22 *1865:D *378:20 0
*RES
1 *1349:X *378:6 20.5104 
2 *378:6 *378:20 26.864 
3 *378:20 *1584:C 41.1792 
4 *378:20 *1350:D 42.1648 
5 *378:6 *1580:A 20 
*END

*D_NET *379 0.00533979
*CONN
*I *1354:B I *D sg13g2_nand3_1
*I *1572:B I *D sg13g2_or2_1
*I *1623:A1 I *D sg13g2_a21oi_1
*I *1350:Y O *D sg13g2_nor4_2
*CAP
1 *1354:B 4.46013e-05
2 *1572:B 9.67188e-05
3 *1623:A1 0.000267525
4 *1350:Y 0.000305805
5 *379:14 0.00142913
6 *379:12 0.0014153
7 *1354:B *1182:A 0
8 *1623:A1 *1623:B1 0
9 *1623:A1 *988:59 0
10 *1623:A1 *1022:6 0.0004738
11 *379:12 *1586:A 7.50643e-05
12 *379:12 *668:24 1.54556e-05
13 *379:14 *1182:A 0
14 *379:14 *1186:A2 0
15 *379:14 *988:94 0
16 *379:14 *1022:6 0.000159435
17 *379:14 *1022:25 0.000606774
18 *379:14 *1026:73 0
19 *379:14 *1030:8 0
20 *379:14 *1114:10 0
21 *1572:A *1572:B 2.20968e-05
22 *1572:A *1623:A1 0.000234604
23 *1599:A2 *1572:B 0
24 *1599:A2 *1623:A1 0
25 *1599:A2 *379:14 0
26 *20:33 *379:12 0
27 *20:33 *379:14 0
28 *51:10 *379:14 0
29 *219:10 *1623:A1 0.000193481
*RES
1 *1350:Y *379:12 22.9656 
2 *379:12 *379:14 11.4928 
3 *379:14 *1623:A1 23.7224 
4 *379:14 *1572:B 21.0956 
5 *379:12 *1354:B 20.4378 
*END

*D_NET *380 0.008466
*CONN
*I *1615:B I *D sg13g2_nand2_1
*I *1618:B I *D sg13g2_nand2_1
*I *1603:B I *D sg13g2_nand2_1
*I *1785:A I *D sg13g2_buf_4
*I *1351:X O *D sg13g2_and2_1
*CAP
1 *1615:B 0.000262925
2 *1618:B 5.26875e-05
3 *1603:B 0
4 *1785:A 8.64586e-05
5 *1351:X 0.00096216
6 *380:40 0.000588528
7 *380:33 0.000528989
8 *380:16 0.00140817
9 *380:10 0.0020278
10 *1615:B *1615:A 0.00010158
11 *1615:B *1618:A 2.20968e-05
12 *1618:B *1618:A 3.74279e-05
13 *1618:B *1046:8 7.508e-05
14 *1785:A *1602:B1 0.00017385
15 *380:10 *793:9 0
16 *380:10 *984:166 0
17 *380:10 *986:49 8.00835e-05
18 *380:10 *987:10 4.8613e-05
19 *380:16 *1602:B1 0.000394495
20 *380:16 *1759:A 0
21 *380:16 *1000:6 0
22 *380:16 *1026:30 0.000128351
23 *380:33 *795:15 0.000470861
24 *380:33 *1000:6 0
25 *380:40 *1515:A1 0
26 *1602:A1 *1785:A 0.000250248
27 *1602:A2 *1785:A 0
28 *1602:A2 *380:33 0.000394078
29 *1617:A2 *380:16 0
30 *52:10 *380:10 0
31 *55:10 *380:10 0.000243414
32 *57:10 *1615:B 0.000128097
33 *183:37 *380:33 0
34 *192:15 *380:10 0
35 *192:32 *380:10 0
36 *192:32 *380:40 0
37 *192:67 *380:10 0
38 *219:10 *380:10 0
*RES
1 *1351:X *380:10 48.9672 
2 *380:10 *380:16 27.7528 
3 *380:16 *1785:A 21.3904 
4 *380:16 *380:33 45.0336 
5 *380:33 *1603:B 20 
6 *380:10 *380:40 2.3056 
7 *380:40 *1618:B 40.572 
8 *380:40 *1615:B 42.4728 
*END

*D_NET *382 0.00508922
*CONN
*I *1582:A I *D sg13g2_and2_1
*I *1354:C I *D sg13g2_nand3_1
*I *1586:A I *D sg13g2_and2_1
*I *1588:B I *D sg13g2_and3_1
*I *1353:Y O *D sg13g2_nor2_2
*CAP
1 *1582:A 0
2 *1354:C 0.000113143
3 *1586:A 0.000280081
4 *1588:B 0
5 *1353:Y 0.000165694
6 *382:55 0.000192491
7 *382:29 0.00064217
8 *382:18 0.00046974
9 *382:10 0.00113889
10 *382:6 0.000778392
11 *1586:A *383:10 0
12 *1586:A *668:24 0.000393264
13 *382:6 *1353:B 0
14 *382:6 *1580:B 0
15 *382:6 *988:94 0
16 *382:10 *667:16 0
17 *382:10 *667:24 0
18 *382:18 *1350:A 0
19 *382:18 *667:8 0
20 *382:55 *667:24 0
21 *1350:D *382:29 0.000128161
22 *1581:B *382:6 0
23 *1581:B *382:10 0
24 *1584:B *382:18 0.000211192
25 *1584:C *382:29 0
26 *1866:D *1586:A 0
27 *20:10 *1354:C 0
28 *20:10 *382:29 0
29 *20:33 *382:6 0.000500937
30 *20:33 *382:10 0
31 *44:8 *382:55 0
32 *378:20 *382:18 0
33 *379:12 *1586:A 7.50643e-05
*RES
1 *1353:Y *382:6 22.2 
2 *382:6 *382:10 3.3176 
3 *382:10 *382:18 44.2152 
4 *382:18 *1588:B 20 
5 *382:10 *382:29 22.1296 
6 *382:29 *1586:A 43.3176 
7 *382:29 *1354:C 41.012 
8 *382:6 *382:55 41.936 
9 *382:55 *1582:A 20 
*END

*D_NET *383 0.00607531
*CONN
*I *1356:S I *D sg13g2_mux2_1
*I *1361:B I *D sg13g2_nand2_1
*I *1357:S I *D sg13g2_mux2_1
*I *1362:A1 I *D sg13g2_o21ai_1
*I *1360:A1 I *D sg13g2_o21ai_1
*I *1359:B I *D sg13g2_nand2_1
*I *1354:Y O *D sg13g2_nand3_1
*CAP
1 *1356:S 0.000220969
2 *1361:B 0.000103971
3 *1357:S 0.000351549
4 *1362:A1 0.000122502
5 *1360:A1 0
6 *1359:B 0
7 *1354:Y 0.000357032
8 *383:48 0.000474051
9 *383:46 0.000603789
10 *383:42 0.000991481
11 *383:27 0.000515812
12 *383:10 0.000602149
13 *1356:S *984:207 0
14 *1357:S *1357:A1 0
15 *1357:S *1362:B1 0.000234832
16 *1357:S *912:18 9.0624e-05
17 *1361:B *1362:B1 7.53965e-05
18 *1362:A1 *1362:B1 7.00092e-05
19 *383:10 *1354:A 0
20 *383:10 *679:8 0
21 *383:27 *1360:A2 4.58902e-05
22 *383:27 *386:10 0
23 *383:42 *1360:A2 5.13751e-05
24 *383:42 *386:10 0
25 *1308:B *1362:A1 0
26 *1311:B *383:27 0
27 *1311:B *383:42 0.000161099
28 *1314:B1 *1356:S 0
29 *1314:B1 *383:42 0
30 *1316:A1 *1357:S 0
31 *1316:B1 *1361:B 6.46828e-05
32 *1316:B1 *383:46 0.000178091
33 *1348:A1 *1357:S 0
34 *1358:A *383:27 0.00012839
35 *1358:A *383:42 0
36 *1586:A *383:10 0
37 *1868:D *1356:S 0
38 *1869:CLK *1357:S 7.51688e-05
39 *1870:D *1356:S 0
40 *1870:D *383:42 0
41 *1873:CLK *383:10 0
42 *1873:CLK *383:27 0
43 *50:10 *1357:S 0
44 *50:10 *1361:B 7.53965e-05
45 *186:21 *383:10 0
46 *186:63 *1356:S 0
47 *218:10 *383:10 0
48 *334:43 *383:42 0
49 *334:43 *383:46 0
50 *334:65 *1362:A1 0
51 *337:12 *383:46 0.000405881
52 *338:31 *383:42 7.51688e-05
53 *338:31 *383:46 0
54 *343:10 *1356:S 0
55 *343:10 *383:46 0
56 *376:10 *1361:B 0
57 *376:10 *383:46 0
58 *377:10 *1357:S 0
*RES
1 *1354:Y *383:10 43.2384 
2 *383:10 *1359:B 40 
3 *383:10 *383:27 22.7698 
4 *383:27 *1360:A1 20 
5 *383:27 *383:42 42.8886 
6 *383:42 *383:46 24.708 
7 *383:46 *383:48 20 
8 *383:48 *1362:A1 21.1088 
9 *383:48 *1357:S 23.4672 
10 *383:46 *1361:B 41.2672 
11 *383:42 *1356:S 22.2616 
*END

*D_NET *385 0.00022488
*CONN
*I *1360:A2 I *D sg13g2_o21ai_1
*I *1358:Y O *D sg13g2_inv_1
*CAP
1 *1360:A2 6.38074e-05
2 *1358:Y 6.38074e-05
3 *1360:A2 *386:10 0
4 *1311:B *1360:A2 0
5 *383:27 *1360:A2 4.58902e-05
6 *383:42 *1360:A2 5.13751e-05
*RES
1 *1358:Y *1360:A2 40.616 
*END

*D_NET *386 0.000688845
*CONN
*I *1360:B1 I *D sg13g2_o21ai_1
*I *1359:Y O *D sg13g2_nand2_1
*CAP
1 *1360:B1 0
2 *1359:Y 0.000200282
3 *386:10 0.000200282
4 *386:10 *1359:A 0.000288281
5 *1360:A2 *386:10 0
6 *383:27 *386:10 0
7 *383:42 *386:10 0
*RES
1 *1359:Y *386:10 42.3408 
2 *386:10 *1360:B1 40 
*END

*D_NET *387 0.000587893
*CONN
*I *1362:B1 I *D sg13g2_o21ai_1
*I *1361:Y O *D sg13g2_nand2_1
*CAP
1 *1362:B1 0.000103828
2 *1361:Y 0.000103828
3 *1357:S *1362:B1 0.000234832
4 *1361:B *1362:B1 7.53965e-05
5 *1362:A1 *1362:B1 7.00092e-05
6 *50:10 *1362:B1 0
*RES
1 *1361:Y *1362:B1 41.2056 
*END

*D_NET *390 0.000645549
*CONN
*I *1374:A0 I *D sg13g2_mux2_1
*I *1365:X O *D sg13g2_xor2_1
*CAP
1 *1374:A0 0
2 *1365:X 0.000180399
3 *390:10 0.000180399
4 *390:10 *1405:A1 0
5 *390:10 *1405:A2 0
6 *390:10 *1405:B1 7.51688e-05
7 *390:10 *429:12 0.000209582
8 *390:10 *442:10 0
9 *17:20 *390:10 0
*RES
1 *1365:X *390:10 41.7072 
2 *390:10 *1374:A0 40 
*END

*D_NET *393 0.00259721
*CONN
*I *1373:A I *D sg13g2_nor2_2
*I *1427:A1 I *D sg13g2_o21ai_1
*I *1432:A I *D sg13g2_nor3_1
*I *1424:B I *D sg13g2_nor3_1
*I *1396:A1 I *D sg13g2_a21o_1
*I *1368:X O *D sg13g2_and2_2
*CAP
1 *1373:A 0.000116225
2 *1427:A1 0.000234485
3 *1432:A 0
4 *1424:B 3.18151e-05
5 *1396:A1 0
6 *1368:X 0.000175861
7 *393:36 0.000432351
8 *393:30 0.00038395
9 *393:21 0.000318032
10 *393:10 0.000392219
11 *1373:A *449:10 0
12 *1424:B *1424:A 0
13 *1427:A1 *1427:A2 3.4887e-05
14 *1427:A1 *444:8 0
15 *1427:A1 *444:27 0
16 *1427:A1 *452:14 0
17 *1427:A1 *457:12 2.21361e-05
18 *393:10 *1365:A 7.51291e-05
19 *393:10 *408:85 0
20 *393:10 *693:66 7.53575e-05
21 *393:21 *408:106 0
22 *393:21 *410:12 0
23 *393:21 *419:10 0
24 *393:30 *410:12 0
25 *393:36 *408:106 0.000304761
26 *393:36 *417:30 0
27 *393:36 *447:8 0
28 *393:36 *452:14 0
*RES
1 *1368:X *393:10 41.496 
2 *393:10 *1396:A1 40 
3 *393:10 *393:21 21.7512 
4 *393:21 *1424:B 20.2728 
5 *393:21 *393:30 0.5104 
6 *393:30 *393:36 41.7512 
7 *393:36 *1432:A 20 
8 *393:36 *1427:A1 21.7952 
9 *393:30 *1373:A 20.9944 
*END

*D_NET *395 0.00163051
*CONN
*I *1409:B I *D sg13g2_nor2_1
*I *1372:A1 I *D sg13g2_a21oi_2
*I *1370:Y O *D sg13g2_nor2_1
*CAP
1 *1409:B 0.00027381
2 *1372:A1 0.000144798
3 *1370:Y 0.000161208
4 *395:10 0.000579816
5 *1372:A1 *1372:A2 2.19663e-05
6 *1372:A1 *693:23 0.000127783
7 *1409:B *397:14 0
8 *1409:B *693:49 0.000274601
9 *1409:B *1012:61 4.6523e-05
10 *1409:B *1012:65 0
11 *1409:B *1014:27 0
12 *395:10 *693:23 0
13 *395:10 *1011:41 0
14 *395:10 *1012:65 0
15 *1409:A *1409:B 0
16 *13:34 *1409:B 0
*RES
1 *1370:Y *395:10 41.3112 
2 *395:10 *1372:A1 41.2936 
3 *395:10 *1409:B 42.508 
*END

*D_NET *396 0.00037133
*CONN
*I *1372:A2 I *D sg13g2_a21oi_2
*I *1371:X O *D sg13g2_or2_1
*CAP
1 *1372:A2 7.9106e-05
2 *1371:X 7.9106e-05
3 *1372:A2 *693:23 1.54556e-05
4 *1372:A2 *693:49 4.79124e-05
5 *1372:A1 *1372:A2 2.19663e-05
6 *13:34 *1372:A2 0.000127783
*RES
1 *1371:X *1372:A2 40.7832 
*END

*D_NET *397 0.00664828
*CONN
*I *1373:B I *D sg13g2_nor2_2
*I *1432:B I *D sg13g2_nor3_1
*I *1427:A2 I *D sg13g2_o21ai_1
*I *1424:C I *D sg13g2_nor3_1
*I *1372:Y O *D sg13g2_a21oi_2
*CAP
1 *1373:B 0
2 *1432:B 2.3558e-05
3 *1427:A2 0.000191021
4 *1424:C 0
5 *1372:Y 4.22965e-05
6 *397:35 0.000451559
7 *397:22 0.000181955
8 *397:16 0.000418935
9 *397:14 0.00149341
10 *397:8 0.00153571
11 *1427:A2 *444:27 0
12 *1427:A2 *452:14 0.000143819
13 *1427:A2 *1010:40 0
14 *1432:B *1420:B 0
15 *1432:B *444:27 1.49483e-05
16 *397:8 *1372:B1 2.20968e-05
17 *397:8 *693:23 0
18 *397:14 *1397:B1 4.77421e-05
19 *397:14 *1405:A2 0
20 *397:14 *1415:B 0.000274193
21 *397:14 *398:8 0.00018113
22 *397:14 *406:14 1.81777e-05
23 *397:14 *406:32 0.000241791
24 *397:14 *407:28 0.000177108
25 *397:14 *413:10 0
26 *397:14 *421:16 0.00033935
27 *397:14 *423:10 0.000146003
28 *397:14 *425:8 0
29 *397:14 *434:10 0
30 *397:14 *438:10 0
31 *397:14 *449:10 0.000234226
32 *397:14 *693:62 0
33 *397:14 *1010:50 0
34 *397:14 *1010:63 1.54007e-05
35 *397:14 *1012:57 0
36 *397:14 *1012:65 0
37 *397:14 *1014:38 0.000291181
38 *397:22 *408:91 0
39 *397:22 *426:16 0
40 *397:35 *1420:A_N 0.000127784
41 *397:35 *408:106 0
42 *397:35 *444:27 0
43 *397:35 *445:8 0
44 *397:35 *1010:40 0
45 *397:35 *1010:50 0
46 *1409:B *397:14 0
47 *1427:A1 *1427:A2 3.4887e-05
48 *13:46 *397:14 0
*RES
1 *1372:Y *397:8 40.2992 
2 *397:8 *397:14 32.848 
3 *397:14 *397:16 20 
4 *397:16 *397:22 41.3552 
5 *397:22 *1424:C 40 
6 *397:16 *397:35 22.1032 
7 *397:35 *1427:A2 21.7666 
8 *397:35 *1432:B 20.2728 
9 *397:14 *1373:B 20 
*END

*D_NET *398 0.0040896
*CONN
*I *1448:A2 I *D sg13g2_o21ai_1
*I *1420:B I *D sg13g2_nand2b_1
*I *1374:S I *D sg13g2_mux2_1
*I *1425:B I *D sg13g2_nor2_1
*I *1373:Y O *D sg13g2_nor2_2
*CAP
1 *1448:A2 0.000560599
2 *1420:B 0.000275245
3 *1374:S 0.000318539
4 *1425:B 0
5 *1373:Y 0.000197695
6 *398:32 0.000994628
7 *398:17 0.000616692
8 *398:8 0.000337065
9 *1374:S *1405:A1 0
10 *1374:S *1418:A2 0.000212279
11 *1374:S *399:8 0
12 *1374:S *421:8 0
13 *1374:S *426:6 2.21754e-05
14 *1374:S *429:12 0
15 *1374:S *443:8 0
16 *1420:B *1426:A1 4.58509e-05
17 *1420:B *429:10 0
18 *1420:B *1010:63 0
19 *1448:A2 *1448:B1 4.79124e-05
20 *1448:A2 *1448:A1 9.88832e-05
21 *1448:A2 *429:12 0
22 *1448:A2 *443:8 0
23 *1448:A2 *451:12 0
24 *1448:A2 *467:43 0.000180904
25 *1448:A2 *831:11 0
26 *1448:A2 *973:42 0
27 *398:8 *421:8 0
28 *398:8 *426:6 0
29 *398:8 *449:10 0
30 *398:8 *450:10 0
31 *398:17 *426:6 0
32 *398:17 *450:10 0
33 *398:32 *429:12 0
34 *398:32 *443:8 0
35 *1432:B *1420:B 0
36 *17:20 *1374:S 0
37 *397:14 *398:8 0.00018113
*RES
1 *1373:Y *398:8 21.8392 
2 *398:8 *1425:B 20 
3 *398:8 *398:17 21.3552 
4 *398:17 *1374:S 42.9568 
5 *398:17 *398:32 1.3816 
6 *398:32 *1420:B 42.651 
7 *398:32 *1448:A2 45.0424 
*END

*D_NET *399 0.0010382
*CONN
*I *1418:A1 I *D sg13g2_a221oi_1
*I *1412:A1 I *D sg13g2_o21ai_1
*I *1374:X O *D sg13g2_mux2_1
*CAP
1 *1418:A1 5.67594e-05
2 *1412:A1 0
3 *1374:X 0.00016584
4 *399:16 0.000226542
5 *399:8 0.000449141
6 *1418:A1 *1418:B2 0
7 *1418:A1 *1418:B1 2.65716e-05
8 *1418:A1 *1418:A2 4.36621e-05
9 *399:8 *1418:B2 3.4333e-05
10 *399:8 *1418:A2 0
11 *399:16 *1406:B 3.53549e-05
12 *399:16 *432:27 0
13 *399:16 *437:8 0
14 *399:16 *440:10 0
15 *399:16 *442:10 0
16 *1374:S *399:8 0
*RES
1 *1374:X *399:8 21.4168 
2 *399:8 *399:16 41.892 
3 *399:16 *1412:A1 20 
4 *399:8 *1418:A1 20.6776 
*END

*D_NET *400 0.000251112
*CONN
*I *1378:A1 I *D sg13g2_o21ai_1
*I *1375:Y O *D sg13g2_inv_1
*CAP
1 *1378:A1 8.79912e-05
2 *1375:Y 8.79912e-05
3 *1378:A1 *1382:B1 0
4 *1378:A1 *1382:A2 7.51291e-05
5 *1378:A1 *406:18 0
6 *1375:A *1378:A1 0
*RES
1 *1375:Y *1378:A1 40.8602 
*END

*D_NET *401 0.00078658
*CONN
*I *1378:A2 I *D sg13g2_o21ai_1
*I *1376:X O *D sg13g2_mux2_1
*CAP
1 *1378:A2 2.85957e-05
2 *1376:X 0.000287088
3 *401:8 0.000315684
4 *1378:A2 *1382:A2 7.51291e-05
5 *401:8 *402:10 0
6 *401:8 *403:12 8.00835e-05
7 *401:8 *405:8 0
*RES
1 *1376:X *401:8 42.1208 
2 *401:8 *1378:A2 40.2992 
*END

*D_NET *402 0.00106637
*CONN
*I *1378:B1 I *D sg13g2_o21ai_1
*I *1377:Y O *D sg13g2_inv_1
*CAP
1 *1378:B1 0
2 *1377:Y 0.000458193
3 *402:10 0.000458193
4 *402:10 *1377:A 2.20968e-05
5 *402:10 *403:12 4.77421e-05
6 *402:10 *404:8 0
7 *402:10 *405:8 0
8 *402:10 *1012:97 0
9 *17:20 *402:10 8.01443e-05
10 *17:52 *402:10 0
11 *401:8 *402:10 0
*RES
1 *1377:Y *402:10 44.004 
2 *402:10 *1378:B1 40 
*END

*D_NET *403 0.00332913
*CONN
*I *1407:A1 I *D sg13g2_a21o_1
*I *1388:A1 I *D sg13g2_a22oi_1
*I *1408:A I *D sg13g2_nand3_1
*I *1378:Y O *D sg13g2_o21ai_1
*CAP
1 *1407:A1 0.000117621
2 *1388:A1 0.000458008
3 *1408:A 0.000108917
4 *1378:Y 0.000355216
5 *403:29 0.000689014
6 *403:12 0.000577518
7 *1388:A1 *1415:C 0
8 *1388:A1 *1417:A 0.000446922
9 *1388:A1 *406:32 0
10 *1388:A1 *407:18 0
11 *1388:A1 *407:28 0
12 *1388:A1 *412:10 0
13 *1407:A1 *1417:A 7.05616e-05
14 *1407:A1 *429:28 0
15 *1407:A1 *432:12 0.000144766
16 *1408:A *1408:B 0
17 *1408:A *1416:B1 6.70414e-05
18 *1408:A *407:18 0
19 *1408:A *408:50 0
20 *403:12 *429:28 0
21 *403:12 *432:12 1.54609e-05
22 *403:29 *429:28 0
23 *17:12 *403:12 0.000128161
24 *17:20 *403:12 0
25 *17:52 *403:12 2.20968e-05
26 *401:8 *403:12 8.00835e-05
27 *402:10 *403:12 4.77421e-05
*RES
1 *1378:Y *403:12 43.1152 
2 *403:12 *1408:A 40.9372 
3 *403:12 *403:29 1.1264 
4 *403:29 *1388:A1 43.6476 
5 *403:29 *1407:A1 41.1902 
*END

*D_NET *404 0.000605438
*CONN
*I *1382:A1 I *D sg13g2_o21ai_1
*I *1379:Y O *D sg13g2_nor2b_1
*CAP
1 *1382:A1 5.95803e-05
2 *1379:Y 0.000130035
3 *404:8 0.000189616
4 *1382:A1 *1382:A2 0
5 *17:20 *404:8 8.01443e-05
6 *17:52 *404:8 0.000146062
7 *402:10 *404:8 0
*RES
1 *1379:Y *404:8 41.1968 
2 *404:8 *1382:A1 40.3938 
*END

*D_NET *405 0.00250713
*CONN
*I *1382:A2 I *D sg13g2_o21ai_1
*I *1380:Y O *D sg13g2_nor3_1
*CAP
1 *1382:A2 0.00017884
2 *1380:Y 0.000433823
3 *405:8 0.000612663
4 *1382:A2 *1382:B1 0.000548095
5 *405:8 *693:38 0.000372707
6 *405:8 *1012:97 0.000210746
7 *1378:A1 *1382:A2 7.51291e-05
8 *1378:A2 *1382:A2 7.51291e-05
9 *1382:A1 *1382:A2 0
10 *13:46 *405:8 0
11 *401:8 *405:8 0
12 *402:10 *405:8 0
*RES
1 *1380:Y *405:8 43.9688 
2 *405:8 *1382:A2 42.2616 
*END

*D_NET *406 0.0050336
*CONN
*I *1399:B1 I *D sg13g2_a21o_1
*I *1382:B1 I *D sg13g2_o21ai_1
*I *1387:A I *D sg13g2_nand3_1
*I *1381:Y O *D sg13g2_inv_1
*CAP
1 *1399:B1 2.14091e-05
2 *1382:B1 0.000322518
3 *1387:A 0
4 *1381:Y 0.000350897
5 *406:32 0.00025342
6 *406:18 0.000621158
7 *406:16 6.6629e-05
8 *406:14 0.000350897
9 *1382:B1 *424:10 7.53575e-05
10 *1382:B1 *835:19 0.000792765
11 *406:14 *1415:B 0
12 *406:14 *422:10 0.000501867
13 *406:14 *423:10 0.00014575
14 *406:14 *1014:38 0.000241899
15 *406:32 *1400:A2 0
16 *406:32 *1416:B1 0
17 *406:32 *408:14 4.8613e-05
18 *406:32 *412:10 0
19 *406:32 *424:10 0.000128201
20 *406:32 *434:10 0.00014508
21 *406:32 *693:62 0
22 *1378:A1 *1382:B1 0
23 *1378:A1 *406:18 0
24 *1382:A2 *1382:B1 0.000548095
25 *1388:A1 *406:32 0
26 *13:34 *406:14 0.000101645
27 *13:46 *406:32 0
28 *17:8 *1382:B1 0
29 *17:8 *1399:B1 5.74294e-05
30 *17:12 *1382:B1 0
31 *397:14 *406:14 1.81777e-05
32 *397:14 *406:32 0.000241791
*RES
1 *1381:Y *406:14 43.6674 
2 *406:14 *406:16 20 
3 *406:16 *406:18 0.4422 
4 *406:18 *406:32 42.618 
5 *406:32 *1387:A 20 
6 *406:18 *1382:B1 24.6816 
7 *406:16 *1399:B1 20.2728 
*END

*D_NET *407 0.00297327
*CONN
*I *1407:A2 I *D sg13g2_a21o_1
*I *1408:B I *D sg13g2_nand3_1
*I *1388:A2 I *D sg13g2_a22oi_1
*I *1382:Y O *D sg13g2_o21ai_1
*CAP
1 *1407:A2 0
2 *1408:B 7.96402e-05
3 *1388:A2 0
4 *1382:Y 0.00031056
5 *407:28 0.000375694
6 *407:18 0.000718464
7 *407:12 0.000427899
8 *407:8 0.000475329
9 *1408:B *1416:B1 4.21333e-05
10 *1408:B *408:50 0
11 *407:8 *432:27 0
12 *407:8 *434:18 0
13 *407:8 *436:10 0.000145243
14 *407:8 *441:10 0
15 *407:12 *1417:A 0
16 *407:12 *408:50 0
17 *407:12 *432:27 0
18 *407:12 *442:10 7.53575e-05
19 *407:18 *1416:B1 0
20 *407:18 *1417:A 2.20968e-05
21 *407:18 *408:50 0
22 *407:18 *441:10 7.51291e-05
23 *407:28 *1415:C 4.8613e-05
24 *407:28 *1416:B1 0
25 *1388:A1 *407:18 0
26 *1388:A1 *407:28 0
27 *1408:A *1408:B 0
28 *1408:A *407:18 0
29 *13:46 *1408:B 0
30 *13:46 *407:28 0
31 *17:20 *407:8 0
32 *397:14 *407:28 0.000177108
*RES
1 *1382:Y *407:8 42.86 
2 *407:8 *407:12 21.4608 
3 *407:12 *407:18 2.1912 
4 *407:18 *407:28 42.772 
5 *407:28 *1388:A2 20 
6 *407:18 *1408:B 20.8096 
7 *407:12 *1407:A2 20 
*END

*D_NET *408 0.0114196
*CONN
*I *1430:B1 I *D sg13g2_a21oi_1
*I *1435:A I *D sg13g2_nor4_1
*I *1395:A2 I *D sg13g2_a221oi_1
*I *1386:A_N I *D sg13g2_nand2b_1
*I *1449:A0 I *D sg13g2_mux2_1
*I *1406:A I *D sg13g2_nand2_1
*I *1410:A I *D sg13g2_nor2_1
*I *1400:A2 I *D sg13g2_o21ai_1
*I *1383:X O *D sg13g2_or2_2
*CAP
1 *1430:B1 0
2 *1435:A 0
3 *1395:A2 4.89292e-05
4 *1386:A_N 2.64027e-05
5 *1449:A0 0.000491193
6 *1406:A 0
7 *1410:A 0
8 *1400:A2 2.63028e-05
9 *1383:X 0.000180515
10 *408:127 0.000246811
11 *408:114 0.000131604
12 *408:106 0.000951001
13 *408:91 0.00029877
14 *408:85 0.00107844
15 *408:70 0.000691022
16 *408:50 0.00109309
17 *408:35 0.000949912
18 *408:14 0.000611908
19 *408:10 0.000826707
20 *1386:A_N *693:66 7.51291e-05
21 *1395:A2 *1395:B1 0
22 *1395:A2 *1396:B1 0
23 *1395:A2 *410:16 0
24 *1400:A2 *1416:B1 1.54556e-05
25 *1449:A0 *1444:A0 0
26 *1449:A0 *437:8 0
27 *1449:A0 *443:8 0
28 *408:10 *1383:B 0.000101685
29 *408:10 *1383:A 0
30 *408:10 *439:8 0
31 *408:10 *693:62 0.000177793
32 *408:10 *835:19 0.000233535
33 *408:14 *1387:B 0.000286254
34 *408:14 *412:10 0
35 *408:14 *835:19 0
36 *408:35 *1411:B 5.30323e-05
37 *408:35 *1416:B1 2.20968e-05
38 *408:35 *433:6 0.000287675
39 *408:35 *434:18 0.000659468
40 *408:50 *1411:B 0
41 *408:50 *1411:C 0
42 *408:50 *1416:A2 0
43 *408:50 *432:27 0
44 *408:50 *436:10 0.000128161
45 *408:50 *835:19 0
46 *408:70 *1368:B 0
47 *408:70 *439:8 0
48 *408:70 *693:62 0.000666726
49 *408:70 *1013:27 0
50 *408:85 *1405:A1 0.000129366
51 *408:85 *410:55 0
52 *408:85 *693:62 4.77421e-05
53 *408:106 *410:55 0
54 *408:106 *444:14 0
55 *408:106 *445:8 0
56 *408:106 *445:18 0
57 *408:106 *457:12 0.000274352
58 *408:106 *1010:50 0
59 *408:114 *1435:B 7.50795e-05
60 *408:114 *426:16 0
61 *408:114 *831:19 0
62 *408:114 *831:25 0
63 *408:127 *426:16 0
64 *408:127 *445:12 6.73462e-05
65 *408:127 *831:19 0
66 *1408:B *408:50 0
67 *1408:A *408:50 0
68 *17:20 *408:35 0.000112739
69 *17:31 *408:91 0
70 *17:39 *1395:A2 0
71 *393:10 *408:85 0
72 *393:21 *408:106 0
73 *393:36 *408:106 0.000304761
74 *397:22 *408:91 0
75 *397:35 *408:106 0
76 *406:32 *1400:A2 0
77 *406:32 *408:14 4.8613e-05
78 *407:12 *408:50 0
79 *407:18 *408:50 0
*RES
1 *1383:X *408:10 41.9448 
2 *408:10 *408:14 22.2 
3 *408:14 *1400:A2 20.2728 
4 *408:14 *408:35 44.125 
5 *408:35 *1410:A 20 
6 *408:35 *408:50 25.8014 
7 *408:50 *1406:A 40 
8 *408:50 *1449:A0 45.192 
9 *408:10 *408:70 3.784 
10 *408:70 *1386:A_N 40.2992 
11 *408:70 *408:85 2.1384 
12 *408:85 *408:91 41.9888 
13 *408:91 *1395:A2 40.3938 
14 *408:85 *408:106 24.796 
15 *408:106 *408:114 41.232 
16 *408:114 *1435:A 20 
17 *408:106 *408:127 42.046 
18 *408:127 *1430:B1 20 
*END

*D_NET *410 0.00420396
*CONN
*I *1386:B I *D sg13g2_nand2b_1
*I *1424:A I *D sg13g2_nor3_1
*I *1404:A I *D sg13g2_and3_1
*I *1395:B2 I *D sg13g2_a221oi_1
*I *1385:Y O *D sg13g2_inv_1
*CAP
1 *1386:B 0
2 *1424:A 5.05757e-05
3 *1404:A 0.00045579
4 *1395:B2 0.000206662
5 *1385:Y 0
6 *410:55 0.000345731
7 *410:16 0.000870729
8 *410:12 0.000498621
9 *410:4 0.0005855
10 *1395:B2 *417:10 0
11 *1395:B2 *419:10 0
12 *1404:A *428:10 0.000406424
13 *1404:A *688:55 0
14 *1404:A *689:10 0
15 *1424:A *1422:B1 0
16 *1424:A *1422:A1 0
17 *410:12 *419:10 0
18 *410:12 *421:8 0.000367224
19 *410:16 *1396:B1 0
20 *410:16 *1422:B1 0
21 *410:16 *1422:A1 0.000181611
22 *410:16 *1422:A2 0
23 *410:16 *417:30 0
24 *410:16 *419:10 0.000128351
25 *410:16 *421:8 0
26 *410:16 *1010:40 0
27 *410:55 *1401:A 0
28 *410:55 *421:8 2.65162e-05
29 *410:55 *421:16 0
30 *1395:A2 *410:16 0
31 *1404:B *1404:A 8.02277e-05
32 *1424:B *1424:A 0
33 *17:39 *410:16 0
34 *393:21 *410:12 0
35 *393:30 *410:12 0
36 *408:85 *410:55 0
37 *408:106 *410:55 0
*RES
1 *1385:Y *410:4 20 
2 *410:4 *410:12 42.4728 
3 *410:12 *410:16 22.2 
4 *410:16 *1395:B2 41.9778 
5 *410:16 *1404:A 44.1536 
6 *410:12 *1424:A 20.4576 
7 *410:4 *410:55 42.519 
8 *410:55 *1386:B 20 
*END

*D_NET *411 0.000835897
*CONN
*I *1388:B1 I *D sg13g2_a22oi_1
*I *1386:Y O *D sg13g2_nand2b_1
*CAP
1 *1388:B1 0.000359305
2 *1386:Y 0.000359305
3 *1388:B1 *1365:A 7.47511e-05
4 *1388:B1 *413:10 0
5 *1388:B1 *421:16 4.25363e-05
*RES
1 *1386:Y *1388:B1 43.9204 
*END

*D_NET *412 0.000414902
*CONN
*I *1388:B2 I *D sg13g2_a22oi_1
*I *1387:Y O *D sg13g2_nand3_1
*CAP
1 *1388:B2 0
2 *1387:Y 0.000207451
3 *412:10 0.000207451
4 *412:10 *693:62 0
5 *1388:A1 *412:10 0
6 *406:32 *412:10 0
7 *408:14 *412:10 0
*RES
1 *1387:Y *412:10 41.6808 
2 *412:10 *1388:B2 40 
*END

*D_NET *413 0.00126204
*CONN
*I *1401:A I *D sg13g2_nor3_2
*I *1413:A I *D sg13g2_or2_1
*I *1388:Y O *D sg13g2_a22oi_1
*CAP
1 *1401:A 0.000221852
2 *1413:A 0
3 *1388:Y 0.000248356
4 *413:10 0.000470208
5 *1401:A *1405:A1 0
6 *1401:A *421:8 0
7 *1401:A *421:16 0.000241229
8 *1401:A *1010:50 0
9 *413:10 *1415:C 0
10 *413:10 *421:16 8.03974e-05
11 *413:10 *693:62 0
12 *1388:B1 *413:10 0
13 *397:14 *413:10 0
14 *410:55 *1401:A 0
*RES
1 *1388:Y *413:10 42.0768 
2 *413:10 *1413:A 40 
3 *413:10 *1401:A 41.9536 
*END

*D_NET *414 0.000512603
*CONN
*I *1395:C1 I *D sg13g2_a221oi_1
*I *1393:A I *D sg13g2_nor2b_1
*I *1389:X O *D sg13g2_mux2_1
*CAP
1 *1395:C1 6.44687e-05
2 *1393:A 0
3 *1389:X 0.000191833
4 *414:10 6.44687e-05
5 *414:8 0.000191833
6 *1395:C1 *1396:A2 0
7 *414:8 *1365:B 0
8 *414:8 *417:10 0
9 *414:8 *1010:10 0
10 *414:8 *1011:12 0
*RES
1 *1389:X *414:8 41.936 
2 *414:8 *414:10 20 
3 *414:10 *1393:A 20 
4 *414:10 *1395:C1 20.5104 
*END

*D_NET *417 0.0017913
*CONN
*I *1423:A1 I *D sg13g2_a21o_1
*I *1393:B_N I *D sg13g2_nor2b_1
*I *1392:X O *D sg13g2_or3_1
*CAP
1 *1423:A1 1.60566e-05
2 *1393:B_N 0
3 *1392:X 0.000538951
4 *417:30 0.00038777
5 *417:10 0.000167237
6 *417:10 *688:47 0
7 *417:10 *1010:10 0
8 *417:30 *1392:B 0
9 *417:30 *1422:B1 0
10 *417:30 *1422:A2 0
11 *417:30 *426:29 1.53326e-05
12 *417:30 *428:10 0
13 *417:30 *447:8 0.000112739
14 *417:30 *452:14 0
15 *417:30 *689:36 0
16 *417:30 *1010:29 0.000553215
17 *1395:B2 *417:10 0
18 *393:36 *417:30 0
19 *410:16 *417:30 0
20 *414:8 *417:10 0
*RES
1 *1392:X *417:10 41.6808 
2 *417:10 *1393:B_N 40 
3 *1392:X *417:30 43.4848 
4 *417:30 *1423:A1 40.1056 
*END

*D_NET *418 0.00159371
*CONN
*I *1396:A2 I *D sg13g2_a21o_1
*I *1393:Y O *D sg13g2_nor2b_1
*CAP
1 *1396:A2 0.000364068
2 *1393:Y 0.000364068
3 *1396:A2 *1365:B 0.000865578
4 *1396:A2 *1395:B1 0
5 *1396:A2 *1396:B1 0
6 *1396:A2 *419:10 0
7 *1395:C1 *1396:A2 0
8 *17:39 *1396:A2 0
*RES
1 *1393:Y *1396:A2 44.114 
*END

*D_NET *419 0.000537009
*CONN
*I *1395:B1 I *D sg13g2_a221oi_1
*I *1394:Y O *D sg13g2_nor2_1
*CAP
1 *1395:B1 4.12773e-05
2 *1394:Y 0.000154745
3 *419:10 0.000196022
4 *1395:B2 *419:10 0
5 *1395:A2 *1395:B1 0
6 *1396:A2 *1395:B1 0
7 *1396:A2 *419:10 0
8 *17:39 *1395:B1 1.66148e-05
9 *393:21 *419:10 0
10 *410:12 *419:10 0
11 *410:16 *419:10 0.000128351
*RES
1 *1394:Y *419:10 41.7072 
2 *419:10 *1395:B1 40.4708 
*END

*D_NET *420 0.000534243
*CONN
*I *1396:B1 I *D sg13g2_a21o_1
*I *1395:Y O *D sg13g2_a221oi_1
*CAP
1 *1396:B1 0.000259647
2 *1395:Y 0.000259647
3 *1396:B1 *421:8 0
4 *1395:A2 *1396:B1 0
5 *1396:A2 *1396:B1 0
6 *17:39 *1396:B1 1.49483e-05
7 *410:16 *1396:B1 0
*RES
1 *1395:Y *1396:B1 42.0548 
*END

*D_NET *421 0.00255587
*CONN
*I *1401:B I *D sg13g2_nor3_2
*I *1413:B I *D sg13g2_or2_1
*I *1396:X O *D sg13g2_a21o_1
*CAP
1 *1401:B 0
2 *1413:B 0
3 *1396:X 0.000331067
4 *421:16 0.00022841
5 *421:8 0.000559476
6 *421:8 *449:10 0
7 *421:8 *1010:50 0.000339666
8 *1374:S *421:8 0
9 *1388:B1 *421:16 4.25363e-05
10 *1396:B1 *421:8 0
11 *1401:A *421:8 0
12 *1401:A *421:16 0.000241229
13 *397:14 *421:16 0.00033935
14 *398:8 *421:8 0
15 *410:12 *421:8 0.000367224
16 *410:16 *421:8 0
17 *410:55 *421:8 2.65162e-05
18 *410:55 *421:16 0
19 *413:10 *421:16 8.03974e-05
*RES
1 *1396:X *421:8 23.5024 
2 *421:8 *421:16 42.3166 
3 *421:16 *1413:B 20 
4 *421:8 *1401:B 20 
*END

*D_NET *422 0.00212894
*CONN
*I *1399:A1 I *D sg13g2_a21o_1
*I *1397:Y O *D sg13g2_o21ai_1
*CAP
1 *1399:A1 9.51337e-06
2 *1397:Y 0.000514942
3 *422:10 0.000524455
4 *422:10 *1397:B1 2.19969e-05
5 *422:10 *693:38 0
6 *13:46 *422:10 0.000533516
7 *17:8 *1399:A1 2.26492e-05
8 *406:14 *422:10 0.000501867
*RES
1 *1397:Y *422:10 44.8224 
2 *422:10 *1399:A1 40.0902 
*END

*D_NET *423 0.000860617
*CONN
*I *1399:A2 I *D sg13g2_a21o_1
*I *1398:X O *D sg13g2_or3_1
*CAP
1 *1399:A2 6.51625e-05
2 *1398:X 0.000122044
3 *423:10 0.000187206
4 *17:8 *1399:A2 0.000194452
5 *397:14 *423:10 0.000146003
6 *406:14 *423:10 0.00014575
*RES
1 *1398:X *423:10 41.1264 
2 *423:10 *1399:A2 40.7744 
*END

*D_NET *424 0.00253713
*CONN
*I *1400:B1 I *D sg13g2_o21ai_1
*I *1416:B1 I *D sg13g2_a21oi_1
*I *1415:B I *D sg13g2_and3_1
*I *1399:X O *D sg13g2_a21o_1
*CAP
1 *1400:B1 0
2 *1416:B1 0.000264198
3 *1415:B 0.000225203
4 *1399:X 0.000234434
5 *424:25 0.000264198
6 *424:10 0.000459636
7 *1415:B *1415:C 7.51291e-05
8 *1415:B *438:10 8.00835e-05
9 *1416:B1 *1416:A2 0
10 *1416:B1 *433:6 0.000128578
11 *424:10 *835:19 0.000181194
12 *1382:B1 *424:10 7.53575e-05
13 *1400:A2 *1416:B1 1.54556e-05
14 *1408:B *1416:B1 4.21333e-05
15 *1408:A *1416:B1 6.70414e-05
16 *13:46 *1416:B1 0
17 *397:14 *1415:B 0.000274193
18 *406:14 *1415:B 0
19 *406:32 *1416:B1 0
20 *406:32 *424:10 0.000128201
21 *407:18 *1416:B1 0
22 *407:28 *1416:B1 0
23 *408:35 *1416:B1 2.20968e-05
*RES
1 *1399:X *424:10 42.1032 
2 *424:10 *1415:B 42.1648 
3 *424:10 *424:25 20 
4 *424:25 *1416:B1 22.4354 
5 *424:25 *1400:B1 20 
*END

*D_NET *425 0.0016501
*CONN
*I *1401:C I *D sg13g2_nor3_2
*I *1400:Y O *D sg13g2_o21ai_1
*CAP
1 *1401:C 2.26793e-05
2 *1400:Y 0.000494886
3 *425:8 0.000517566
4 *425:8 *1405:A2 0.000306756
5 *425:8 *429:12 0
6 *425:8 *429:16 0
7 *425:8 *429:28 0
8 *425:8 *438:10 0.000308216
9 *397:14 *425:8 0
*RES
1 *1400:Y *425:8 44.5232 
2 *425:8 *1401:C 40.154 
*END

*D_NET *426 0.0074403
*CONN
*I *1418:A2 I *D sg13g2_a221oi_1
*I *1426:B1 I *D sg13g2_o21ai_1
*I *1421:S I *D sg13g2_mux2_1
*I *1446:A2 I *D sg13g2_o21ai_1
*I *1434:B I *D sg13g2_and3_1
*I *1433:B I *D sg13g2_nor3_1
*I *1428:A2 I *D sg13g2_o21ai_1
*I *1423:B1 I *D sg13g2_a21o_1
*I *1401:Y O *D sg13g2_nor3_2
*CAP
1 *1418:A2 0.000449047
2 *1426:B1 0
3 *1421:S 0
4 *1446:A2 0
5 *1434:B 1.6022e-05
6 *1433:B 2.56846e-05
7 *1428:A2 3.63662e-05
8 *1423:B1 1.53142e-05
9 *1401:Y 0.000104176
10 *426:83 0.000157219
11 *426:70 0.000548835
12 *426:55 0.000681622
13 *426:46 0.000264507
14 *426:42 0.000490503
15 *426:29 0.000439758
16 *426:16 0.000775358
17 *426:10 0.000940686
18 *426:6 0.00092603
19 *1418:A2 *1418:B1 2.48767e-05
20 *1423:B1 *428:10 0
21 *1428:A2 *429:10 0
22 *426:6 *1405:A1 0
23 *426:10 *1405:A2 0
24 *426:10 *429:12 0
25 *426:10 *450:10 0.000209665
26 *426:29 *428:10 0
27 *426:29 *448:8 0
28 *426:29 *452:14 0
29 *426:42 *458:10 0
30 *426:46 *1431:A 0.000181572
31 *426:46 *1433:A 0.000101874
32 *426:46 *973:42 0
33 *426:55 *973:42 0
34 *426:70 *460:12 0
35 *426:70 *469:10 4.78029e-05
36 *426:70 *973:42 0
37 *426:70 *984:100 0
38 *426:83 *458:10 0
39 *1374:S *1418:A2 0.000212279
40 *1374:S *426:6 2.21754e-05
41 *1418:A1 *1418:A2 4.36621e-05
42 *1434:A *426:46 0.000445398
43 *1434:A *426:55 0.000264538
44 *17:20 *1418:A2 0
45 *19:10 *426:42 0
46 *397:22 *426:16 0
47 *398:8 *426:6 0
48 *398:17 *426:6 0
49 *399:8 *1418:A2 0
50 *408:114 *426:16 0
51 *408:127 *426:16 0
52 *417:30 *426:29 1.53326e-05
*RES
1 *1401:Y *426:6 20.9328 
2 *426:6 *426:10 23.0448 
3 *426:10 *426:16 45.1568 
4 *426:16 *1423:B1 40.2178 
5 *426:16 *426:29 1.7512 
6 *426:29 *1428:A2 40.2992 
7 *426:29 *426:42 1.1264 
8 *426:42 *426:46 21.7776 
9 *426:46 *1433:B 20.2728 
10 *426:46 *426:55 1.144 
11 *426:55 *1434:B 20.2728 
12 *426:55 *426:70 45.1392 
13 *426:70 *1446:A2 20 
14 *426:42 *426:83 41.628 
15 *426:83 *1421:S 40 
16 *426:10 *1426:B1 40 
17 *426:6 *1418:A2 24.5276 
*END

*D_NET *428 0.00146927
*CONN
*I *1428:A1 I *D sg13g2_o21ai_1
*I *1404:C I *D sg13g2_and3_1
*I *1403:Y O *D sg13g2_nand2b_1
*CAP
1 *1428:A1 0.000100501
2 *1404:C 0
3 *1403:Y 0.00029274
4 *428:12 0.000100501
5 *428:10 0.00029274
6 *1428:A1 *429:10 0
7 *1428:A1 *831:25 0
8 *428:10 *448:8 0.000276359
9 *428:10 *1010:29 0
10 *1404:A *428:10 0.000406424
11 *1423:B1 *428:10 0
12 *417:30 *428:10 0
13 *426:29 *428:10 0
*RES
1 *1403:Y *428:10 42.816 
2 *428:10 *428:12 20 
3 *428:12 *1404:C 20 
4 *428:12 *1428:A1 20.8162 
*END

*D_NET *429 0.00516913
*CONN
*I *1405:B1 I *D sg13g2_a21oi_1
*I *1407:B1 I *D sg13g2_a21o_1
*I *1408:C I *D sg13g2_nand3_1
*I *1404:X O *D sg13g2_and3_1
*CAP
1 *1405:B1 5.44583e-05
2 *1407:B1 7.28525e-05
3 *1408:C 0
4 *1404:X 0.000702834
5 *429:28 0.000313897
6 *429:16 0.00059704
7 *429:12 0.000960563
8 *429:10 0.00139865
9 *1405:B1 *1405:A1 0
10 *1405:B1 *1405:A2 0
11 *1407:B1 *1417:A 2.03628e-06
12 *1407:B1 *432:6 0
13 *429:10 *1420:A_N 0
14 *429:10 *1428:B1 0
15 *429:10 *1429:C1 0
16 *429:10 *1435:B 0
17 *429:10 *1435:C 0
18 *429:10 *1436:B 0
19 *429:10 *444:8 0.000446923
20 *429:10 *444:27 0.000287383
21 *429:10 *451:12 0
22 *429:10 *831:25 0
23 *429:10 *1010:63 0
24 *429:12 *1405:A2 0
25 *429:12 *445:8 0
26 *429:12 *450:10 0
27 *429:28 *1415:C 0
28 *429:28 *1417:A 0
29 *429:28 *432:6 0
30 *429:28 *440:10 0
31 *1374:S *429:12 0
32 *1407:A1 *429:28 0
33 *1420:B *429:10 0
34 *1428:A1 *429:10 0
35 *1428:A2 *429:10 0
36 *1448:A2 *429:12 0
37 *13:46 *429:28 4.77421e-05
38 *17:20 *429:16 0
39 *390:10 *1405:B1 7.51688e-05
40 *390:10 *429:12 0.000209582
41 *398:32 *429:12 0
42 *403:12 *429:28 0
43 *403:29 *429:28 0
44 *425:8 *429:12 0
45 *425:8 *429:16 0
46 *425:8 *429:28 0
47 *426:10 *429:12 0
*RES
1 *1404:X *429:10 46.644 
2 *429:10 *429:12 5.4472 
3 *429:12 *429:16 22.0438 
4 *429:16 *429:28 42.4442 
5 *429:28 *1408:C 20 
6 *429:16 *1407:B1 20.484 
7 *429:12 *1405:B1 40.4796 
*END

*D_NET *430 0.000704081
*CONN
*I *1406:B I *D sg13g2_nand2_1
*I *1405:Y O *D sg13g2_a21oi_1
*CAP
1 *1406:B 0.000334363
2 *1405:Y 0.000334363
3 *1406:B *1405:A1 0
4 *1406:B *1405:A2 0
5 *1406:B *1412:A2 0
6 *1406:B *1418:B1 0
7 *1406:B *432:27 0
8 *399:16 *1406:B 3.53549e-05
*RES
1 *1405:Y *1406:B 42.8952 
*END

*D_NET *431 0.000318022
*CONN
*I *1412:A2 I *D sg13g2_o21ai_1
*I *1406:Y O *D sg13g2_nand2_1
*CAP
1 *1412:A2 0.000159011
2 *1406:Y 0.000159011
3 *1412:A2 *1405:A2 0
4 *1412:A2 *432:27 0
5 *1406:B *1412:A2 0
*RES
1 *1406:Y *1412:A2 41.4168 
*END

*D_NET *432 0.0027985
*CONN
*I *1411:A I *D sg13g2_nand3_1
*I *1416:A1 I *D sg13g2_a21oi_1
*I *1407:X O *D sg13g2_a21o_1
*CAP
1 *1411:A 0
2 *1416:A1 0
3 *1407:X 0.000128411
4 *432:27 0.000449834
5 *432:12 0.000182672
6 *432:6 0.000760917
7 *432:6 *1417:A 2.20968e-05
8 *432:6 *440:10 0.000287676
9 *432:27 *1417:A 0.00026539
10 *432:27 *436:10 0
11 *432:27 *440:10 0.000234266
12 *432:27 *835:19 0
13 *1406:B *432:27 0
14 *1407:A1 *432:12 0.000144766
15 *1407:B1 *432:6 0
16 *1412:A2 *432:27 0
17 *17:20 *432:12 0.00030701
18 *399:16 *432:27 0
19 *403:12 *432:12 1.54609e-05
20 *407:8 *432:27 0
21 *407:12 *432:27 0
22 *408:50 *432:27 0
23 *429:28 *432:6 0
*RES
1 *1407:X *432:6 21.144 
2 *432:6 *432:12 41.7512 
3 *432:12 *1416:A1 20 
4 *432:6 *432:27 44.3296 
5 *432:27 *1411:A 20 
*END

*D_NET *433 0.00118109
*CONN
*I *1411:B I *D sg13g2_nand3_1
*I *1416:A2 I *D sg13g2_a21oi_1
*I *1408:Y O *D sg13g2_nand3_1
*CAP
1 *1411:B 0.00023048
2 *1416:A2 4.69663e-05
3 *1408:Y 7.8458e-05
4 *433:6 0.000355905
5 *1411:B *1411:C 0
6 *1411:B *434:18 0
7 *1411:B *436:10 0
8 *1411:B *835:19 0
9 *1416:B1 *1416:A2 0
10 *1416:B1 *433:6 0.000128578
11 *408:35 *1411:B 5.30323e-05
12 *408:35 *433:6 0.000287675
13 *408:50 *1411:B 0
14 *408:50 *1416:A2 0
*RES
1 *1408:Y *433:6 21.144 
2 *433:6 *1416:A2 20.4576 
3 *433:6 *1411:B 22.0966 
*END

*D_NET *434 0.00314726
*CONN
*I *1410:B I *D sg13g2_nor2_1
*I *1409:Y O *D sg13g2_nor2_1
*CAP
1 *1410:B 0
2 *1409:Y 0.000389114
3 *434:18 0.000612449
4 *434:10 0.00100156
5 *434:10 *693:49 0
6 *434:10 *693:62 0
7 *434:10 *1012:57 0
8 *434:10 *1014:27 0.000339582
9 *434:18 *835:19 0
10 *1411:B *434:18 0
11 *17:8 *434:10 0
12 *397:14 *434:10 0
13 *406:32 *434:10 0.00014508
14 *407:8 *434:18 0
15 *408:35 *434:18 0.000659468
*RES
1 *1409:Y *434:10 43.6608 
2 *434:10 *434:18 44.928 
3 *434:18 *1410:B 40 
*END

*D_NET *435 0.000260085
*CONN
*I *1411:C I *D sg13g2_nand3_1
*I *1410:Y O *D sg13g2_nor2_1
*CAP
1 *1411:C 0.000130043
2 *1410:Y 0.000130043
3 *1411:B *1411:C 0
4 *408:50 *1411:C 0
*RES
1 *1410:Y *1411:C 40.9944 
*END

*D_NET *436 0.00105115
*CONN
*I *1412:B1 I *D sg13g2_o21ai_1
*I *1411:Y O *D sg13g2_nand3_1
*CAP
1 *1412:B1 0
2 *1411:Y 0.000388872
3 *436:10 0.000388872
4 *436:10 *440:10 0
5 *436:10 *835:19 0
6 *1411:B *436:10 0
7 *407:8 *436:10 0.000145243
8 *408:50 *436:10 0.000128161
9 *432:27 *436:10 0
*RES
1 *1411:Y *436:10 42.2616 
2 *436:10 *1412:B1 40 
*END

*D_NET *437 0.000472676
*CONN
*I *1418:B1 I *D sg13g2_a221oi_1
*I *1412:Y O *D sg13g2_o21ai_1
*CAP
1 *1418:B1 9.98644e-05
2 *1412:Y 0.000110749
3 *437:8 0.000210614
4 *1418:B1 *1418:B2 0
5 *1406:B *1418:B1 0
6 *1418:A1 *1418:B1 2.65716e-05
7 *1418:A2 *1418:B1 2.48767e-05
8 *1449:A0 *437:8 0
9 *399:16 *437:8 0
*RES
1 *1412:Y *437:8 41.012 
2 *437:8 *1418:B1 40.902 
*END

*D_NET *438 0.00259295
*CONN
*I *1417:A I *D sg13g2_nor2b_1
*I *1415:A I *D sg13g2_and3_1
*I *1413:X O *D sg13g2_or2_1
*CAP
1 *1417:A 0.000394402
2 *1415:A 0
3 *1413:X 0.000255808
4 *438:12 0.000394402
5 *438:10 0.000255808
6 *1417:A *1415:C 7.51291e-05
7 *1417:A *442:10 0
8 *1388:A1 *1417:A 0.000446922
9 *1407:A1 *1417:A 7.05616e-05
10 *1407:B1 *1417:A 2.03628e-06
11 *1415:B *438:10 8.00835e-05
12 *397:14 *438:10 0
13 *407:12 *1417:A 0
14 *407:18 *1417:A 2.20968e-05
15 *425:8 *438:10 0.000308216
16 *429:28 *1417:A 0
17 *432:6 *1417:A 2.20968e-05
18 *432:27 *1417:A 0.00026539
*RES
1 *1413:X *438:10 42.2616 
2 *438:10 *438:12 20 
3 *438:12 *1415:A 20 
4 *438:12 *1417:A 24.4352 
*END

*D_NET *439 0.0026335
*CONN
*I *1415:C I *D sg13g2_and3_1
*I *1414:X O *D sg13g2_or4_1
*CAP
1 *1415:C 0.00039389
2 *1414:X 0.000531623
3 *439:8 0.000925512
4 *1415:C *1387:C 0
5 *439:8 *1773:A 0.000307411
6 *439:8 *693:49 0
7 *439:8 *1013:27 0.000276188
8 *439:8 *1014:14 0
9 *1388:A1 *1415:C 0
10 *1415:B *1415:C 7.51291e-05
11 *1417:A *1415:C 7.51291e-05
12 *407:28 *1415:C 4.8613e-05
13 *408:10 *439:8 0
14 *408:70 *439:8 0
15 *413:10 *1415:C 0
16 *429:28 *1415:C 0
*RES
1 *1414:X *439:8 44.3384 
2 *439:8 *1415:C 43.3176 
*END

*D_NET *440 0.00210286
*CONN
*I *1418:B2 I *D sg13g2_a221oi_1
*I *1415:X O *D sg13g2_and3_1
*CAP
1 *1418:B2 4.20488e-05
2 *1415:X 0.000495315
3 *440:10 0.000537364
4 *440:10 *1405:A2 0
5 *440:10 *442:10 0.00047186
6 *1418:B1 *1418:B2 0
7 *1418:A1 *1418:B2 0
8 *399:8 *1418:B2 3.4333e-05
9 *399:16 *440:10 0
10 *429:28 *440:10 0
11 *432:6 *440:10 0.000287676
12 *432:27 *440:10 0.000234266
13 *436:10 *440:10 0
*RES
1 *1415:X *440:10 45.0864 
2 *440:10 *1418:B2 40.4092 
*END

*D_NET *441 0.000736309
*CONN
*I *1417:B_N I *D sg13g2_nor2b_1
*I *1416:Y O *D sg13g2_a21oi_1
*CAP
1 *1417:B_N 0
2 *1416:Y 0.000201249
3 *441:10 0.000201249
4 *441:10 *442:10 4.79958e-05
5 *17:20 *441:10 0.000210686
6 *407:8 *441:10 0
7 *407:18 *441:10 7.51291e-05
*RES
1 *1416:Y *441:10 41.9184 
2 *441:10 *1417:B_N 40 
*END

*D_NET *442 0.00149265
*CONN
*I *1418:C1 I *D sg13g2_a221oi_1
*I *1417:Y O *D sg13g2_nor2b_1
*CAP
1 *1418:C1 0
2 *1417:Y 0.00044872
3 *442:10 0.00044872
4 *1417:A *442:10 0
5 *17:20 *442:10 0
6 *390:10 *442:10 0
7 *399:16 *442:10 0
8 *407:12 *442:10 7.53575e-05
9 *440:10 *442:10 0.00047186
10 *441:10 *442:10 4.79958e-05
*RES
1 *1417:Y *442:10 43.8984 
2 *442:10 *1418:C1 40 
*END

*D_NET *443 0.00116741
*CONN
*I *1436:A I *D sg13g2_or4_1
*I *1418:Y O *D sg13g2_a221oi_1
*CAP
1 *1436:A 7.47213e-05
2 *1418:Y 0.000471443
3 *443:8 0.000546164
4 *1436:A *1444:A0 7.508e-05
5 *1436:A *973:16 0
6 *443:8 *1449:S 0
7 *1374:S *443:8 0
8 *1448:A2 *443:8 0
9 *1449:A0 *443:8 0
10 *398:32 *443:8 0
*RES
1 *1418:Y *443:8 44.708 
2 *443:8 *1436:A 40.7216 
*END

*D_NET *444 0.00351976
*CONN
*I *1420:A_N I *D sg13g2_nand2b_1
*I *1432:C I *D sg13g2_nor3_1
*I *1427:B1 I *D sg13g2_o21ai_1
*I *1419:Y O *D sg13g2_nor3_2
*CAP
1 *1420:A_N 9.16725e-05
2 *1432:C 0
3 *1427:B1 0
4 *1419:Y 0.000908621
5 *444:27 0.000291177
6 *444:14 8.39967e-05
7 *444:8 0.00119212
8 *444:8 *1419:B 0
9 *444:8 *831:25 0
10 *444:8 *1010:29 0
11 *444:14 *452:14 0
12 *444:27 *457:12 7.51291e-05
13 *1404:B *444:8 0
14 *1427:A1 *444:8 0
15 *1427:A1 *444:27 0
16 *1427:A2 *444:27 0
17 *1432:B *444:27 1.49483e-05
18 *397:35 *1420:A_N 0.000127784
19 *397:35 *444:27 0
20 *408:106 *444:14 0
21 *429:10 *1420:A_N 0
22 *429:10 *444:8 0.000446923
23 *429:10 *444:27 0.000287383
*RES
1 *1419:Y *444:8 28.8088 
2 *444:8 *444:14 40.6424 
3 *444:14 *1427:B1 20 
4 *444:8 *444:27 2.1736 
5 *444:27 *1432:C 20 
6 *444:27 *1420:A_N 20.9328 
*END

*D_NET *445 0.00184587
*CONN
*I *1429:A1 I *D sg13g2_a221oi_1
*I *1434:C I *D sg13g2_and3_1
*I *1420:Y O *D sg13g2_nand2b_1
*CAP
1 *1429:A1 4.1214e-05
2 *1434:C 0
3 *1420:Y 0.000261384
4 *445:18 0.000214577
5 *445:12 0.000320899
6 *445:8 0.000326491
7 *1429:A1 *1429:B2 0
8 *445:8 *449:10 0
9 *445:8 *450:10 0
10 *445:8 *451:12 0
11 *445:12 *1429:B2 0.000233443
12 *445:12 *1429:A2 3.02457e-05
13 *445:18 *446:10 0.000239666
14 *445:18 *448:16 0.000110607
15 *445:18 *459:10 0
16 *397:35 *445:8 0
17 *408:106 *445:8 0
18 *408:106 *445:18 0
19 *408:127 *445:12 6.73462e-05
20 *429:12 *445:8 0
*RES
1 *1420:Y *445:8 42.1208 
2 *445:8 *445:12 20.9328 
3 *445:12 *445:18 41.7512 
4 *445:18 *1434:C 20 
5 *445:12 *1429:A1 20.3696 
*END

*D_NET *446 0.00249692
*CONN
*I *1429:A2 I *D sg13g2_a221oi_1
*I *1421:X O *D sg13g2_mux2_1
*CAP
1 *1429:A2 5.7376e-05
2 *1421:X 0.000375423
3 *446:10 0.000432799
4 *1429:A2 *1430:A1 7.50795e-05
5 *446:10 *458:10 0.000287948
6 *446:10 *459:10 0.000233601
7 *446:10 *460:12 0
8 *446:10 *973:42 0.000764784
9 *445:12 *1429:A2 3.02457e-05
10 *445:18 *446:10 0.000239666
*RES
1 *1421:X *446:10 44.4264 
2 *446:10 *1429:A2 40.693 
*END

*D_NET *447 0.000323844
*CONN
*I *1423:A2 I *D sg13g2_a21o_1
*I *1422:Y O *D sg13g2_o21ai_1
*CAP
1 *1423:A2 2.05908e-05
2 *1422:Y 8.49618e-05
3 *447:8 0.000105553
4 *393:36 *447:8 0
5 *417:30 *447:8 0.000112739
*RES
1 *1422:Y *447:8 40.8272 
2 *447:8 *1423:A2 40.1408 
*END

*D_NET *448 0.00361157
*CONN
*I *1430:A1 I *D sg13g2_a21oi_1
*I *1429:B1 I *D sg13g2_a221oi_1
*I *1423:X O *D sg13g2_a21o_1
*CAP
1 *1430:A1 0.000145529
2 *1429:B1 0
3 *1423:X 0.000254689
4 *448:18 0.000145529
5 *448:16 0.000521811
6 *448:8 0.0007765
7 *1430:A1 *1435:D 0
8 *1430:A1 *1436:C 7.47893e-05
9 *1430:A1 *460:12 0.000392314
10 *448:16 *459:10 0
11 *448:16 *460:12 0.00033993
12 *448:16 *831:25 0.000498431
13 *1429:A2 *1430:A1 7.50795e-05
14 *1434:A *448:16 0
15 *19:25 *448:16 0
16 *426:29 *448:8 0
17 *428:10 *448:8 0.000276359
18 *445:18 *448:16 0.000110607
*RES
1 *1423:X *448:8 42.3056 
2 *448:8 *448:16 44.3208 
3 *448:16 *448:18 20 
4 *448:18 *1429:B1 20 
5 *448:18 *1430:A1 21.8392 
*END

*D_NET *449 0.00202274
*CONN
*I *1426:A1 I *D sg13g2_o21ai_1
*I *1424:Y O *D sg13g2_nor3_1
*CAP
1 *1426:A1 1.58594e-05
2 *1424:Y 0.000488676
3 *449:10 0.000504535
4 *449:10 *450:10 2.20968e-05
5 *449:10 *1010:40 0.000552212
6 *449:10 *1010:63 0.000159286
7 *1373:A *449:10 0
8 *1420:B *1426:A1 4.58509e-05
9 *397:14 *449:10 0.000234226
10 *398:8 *449:10 0
11 *421:8 *449:10 0
12 *445:8 *449:10 0
*RES
1 *1424:Y *449:10 44.6376 
2 *449:10 *1426:A1 40.1826 
*END

*D_NET *450 0.00070161
*CONN
*I *1426:A2 I *D sg13g2_o21ai_1
*I *1425:Y O *D sg13g2_nor2_1
*CAP
1 *1426:A2 0
2 *1425:Y 0.000234924
3 *450:10 0.000234924
4 *398:8 *450:10 0
5 *398:17 *450:10 0
6 *426:10 *450:10 0.000209665
7 *429:12 *450:10 0
8 *445:8 *450:10 0
9 *449:10 *450:10 2.20968e-05
*RES
1 *1425:Y *450:10 41.892 
2 *450:10 *1426:A2 40 
*END

*D_NET *451 0.00182997
*CONN
*I *1430:A2 I *D sg13g2_a21oi_1
*I *1429:B2 I *D sg13g2_a221oi_1
*I *1426:Y O *D sg13g2_o21ai_1
*CAP
1 *1430:A2 2.59228e-05
2 *1429:B2 0.00025847
3 *1426:Y 0.000291581
4 *451:14 0.000284393
5 *451:12 0.000291581
6 *1429:B2 *1429:C1 0
7 *1429:B2 *1436:B 0.000444583
8 *1429:B2 *1436:C 0
9 *1429:A1 *1429:B2 0
10 *1448:A2 *451:12 0
11 *429:10 *451:12 0
12 *445:8 *451:12 0
13 *445:12 *1429:B2 0.000233443
*RES
1 *1426:Y *451:12 42.376 
2 *451:12 *451:14 20 
3 *451:14 *1429:B2 23.0184 
4 *451:14 *1430:A2 20.2728 
*END

*D_NET *452 0.00100785
*CONN
*I *1428:B1 I *D sg13g2_o21ai_1
*I *1427:Y O *D sg13g2_o21ai_1
*CAP
1 *1428:B1 3.46694e-05
2 *1427:Y 0.000386297
3 *452:14 0.000420966
4 *1428:B1 *1435:B 2.20968e-05
5 *452:14 *457:12 0
6 *452:14 *1010:29 0
7 *452:14 *1010:40 0
8 *1427:A1 *452:14 0
9 *1427:A2 *452:14 0.000143819
10 *393:36 *452:14 0
11 *417:30 *452:14 0
12 *426:29 *452:14 0
13 *429:10 *1428:B1 0
14 *444:14 *452:14 0
*RES
1 *1427:Y *452:14 43.4144 
2 *452:14 *1428:B1 40.2992 
*END

*D_NET *453 0.000884803
*CONN
*I *1429:C1 I *D sg13g2_a221oi_1
*I *1435:B I *D sg13g2_nor4_1
*I *1428:Y O *D sg13g2_o21ai_1
*CAP
1 *1429:C1 0.000219388
2 *1435:B 0.000281013
3 *1428:Y 6.16254e-05
4 *1429:C1 *1435:C 7.54559e-05
5 *1429:C1 *1435:D 7.50643e-05
6 *1429:C1 *1436:B 0
7 *1429:C1 *460:12 0
8 *1435:B *1435:C 7.50795e-05
9 *1428:B1 *1435:B 2.20968e-05
10 *1429:B2 *1429:C1 0
11 *408:114 *1435:B 7.50795e-05
12 *429:10 *1429:C1 0
13 *429:10 *1435:B 0
*RES
1 *1428:Y *1435:B 40.7216 
2 *1435:B *1429:C1 42.2264 
*END

*D_NET *454 0.00142467
*CONN
*I *1436:B I *D sg13g2_or4_1
*I *1429:Y O *D sg13g2_a221oi_1
*CAP
1 *1436:B 0.000490043
2 *1429:Y 0.000490043
3 *1436:B *1436:C 0
4 *1436:B *831:11 0
5 *1429:B2 *1436:B 0.000444583
6 *1429:C1 *1436:B 0
7 *429:10 *1436:B 0
*RES
1 *1429:Y *1436:B 44.708 
*END

*D_NET *455 0.00056899
*CONN
*I *1436:C I *D sg13g2_or4_1
*I *1430:Y O *D sg13g2_a21oi_1
*CAP
1 *1436:C 0.000247101
2 *1430:Y 0.000247101
3 *1436:C *460:12 0
4 *1429:B2 *1436:C 0
5 *1430:A1 *1436:C 7.47893e-05
6 *1436:B *1436:C 0
*RES
1 *1430:Y *1436:C 42.0328 
*END

*D_NET *456 0.000241946
*CONN
*I *1433:A I *D sg13g2_nor3_1
*I *1431:Y O *D sg13g2_inv_1
*CAP
1 *1433:A 1.90993e-05
2 *1431:Y 1.90993e-05
3 *1433:A *973:42 0.000101874
4 *426:46 *1433:A 0.000101874
*RES
1 *1431:Y *1433:A 40.4048 
*END

*D_NET *457 0.00119258
*CONN
*I *1433:C I *D sg13g2_nor3_1
*I *1432:Y O *D sg13g2_nor3_1
*CAP
1 *1433:C 0
2 *1432:Y 0.00041048
3 *457:12 0.00041048
4 *457:12 *458:10 0
5 *457:12 *459:10 0
6 *457:12 *831:19 0
7 *1427:A1 *457:12 2.21361e-05
8 *408:106 *457:12 0.000274352
9 *444:27 *457:12 7.51291e-05
10 *452:14 *457:12 0
*RES
1 *1432:Y *457:12 43.6432 
2 *457:12 *1433:C 40 
*END

*D_NET *458 0.00142128
*CONN
*I *1435:C I *D sg13g2_nor4_1
*I *1433:Y O *D sg13g2_nor3_1
*CAP
1 *1435:C 7.91072e-05
2 *1433:Y 0.000388499
3 *458:10 0.000467607
4 *458:10 *831:19 4.75868e-05
5 *458:10 *984:94 0
6 *1429:C1 *1435:C 7.54559e-05
7 *1435:B *1435:C 7.50795e-05
8 *426:42 *458:10 0
9 *426:83 *458:10 0
10 *429:10 *1435:C 0
11 *446:10 *458:10 0.000287948
12 *457:12 *458:10 0
*RES
1 *1433:Y *458:10 43.168 
2 *458:10 *1435:C 40.9372 
*END

*D_NET *459 0.00130874
*CONN
*I *1435:D I *D sg13g2_nor4_1
*I *1434:X O *D sg13g2_and3_1
*CAP
1 *1435:D 0.000134274
2 *1434:X 0.000365764
3 *459:10 0.000500038
4 *1435:D *460:12 0
5 *459:10 *973:42 0
6 *1429:C1 *1435:D 7.50643e-05
7 *1430:A1 *1435:D 0
8 *445:18 *459:10 0
9 *446:10 *459:10 0.000233601
10 *448:16 *459:10 0
11 *457:12 *459:10 0
*RES
1 *1434:X *459:10 43.08 
2 *459:10 *1435:D 41.0758 
*END

*D_NET *460 0.00198823
*CONN
*I *1436:D I *D sg13g2_or4_1
*I *1435:Y O *D sg13g2_nor4_1
*CAP
1 *1436:D 0
2 *1435:Y 0.000458473
3 *460:12 0.000458473
4 *460:12 *831:11 0.000339042
5 *1429:C1 *460:12 0
6 *1430:A1 *460:12 0.000392314
7 *1435:D *460:12 0
8 *1436:C *460:12 0
9 *426:70 *460:12 0
10 *446:10 *460:12 0
11 *448:16 *460:12 0.00033993
*RES
1 *1435:Y *460:12 44.8048 
2 *460:12 *1436:D 40 
*END

*D_NET *461 0.000929856
*CONN
*I *1444:A0 I *D sg13g2_mux2_1
*I *1436:X O *D sg13g2_or4_1
*CAP
1 *1444:A0 0.000389848
2 *1436:X 0.000389848
3 *1444:A0 *1444:S 7.50795e-05
4 *1444:A0 *1449:S 0
5 *1444:A0 *973:16 0
6 *1436:A *1444:A0 7.508e-05
7 *1449:A0 *1444:A0 0
*RES
1 *1436:X *1444:A0 43.6256 
*END

*D_NET *462 0.0036515
*CONN
*I *1632:A I *D sg13g2_nor2_1
*I *1438:D I *D sg13g2_nor4_2
*I *1636:C I *D sg13g2_nor3_1
*I *1437:X O *D sg13g2_or2_1
*CAP
1 *1632:A 4.57497e-05
2 *1438:D 0.000368416
3 *1636:C 2.13152e-05
4 *1437:X 0.000844329
5 *462:16 0.000514173
6 *462:10 0.00101452
7 *1438:D *1438:B 0
8 *1438:D *463:12 0
9 *1438:D *466:44 0
10 *1438:D *683:21 0
11 *1438:D *685:30 3.71439e-05
12 *1438:D *1033:16 0
13 *1636:C *683:21 0
14 *462:10 *1441:B 0
15 *462:10 *1893:CLK 0
16 *462:10 *466:12 0
17 *462:10 *972:9 0
18 *462:10 *1033:16 0
19 *462:16 *1632:B 0.00012839
20 *462:16 *463:6 0
21 *462:16 *463:12 0.000447716
22 *462:16 *683:21 0
23 *1627:B *462:10 0
24 *1636:B *1636:C 3.24568e-05
25 *1636:B *462:16 0.000197294
26 *1893:D *462:10 0
*RES
1 *1437:X *462:10 46.1952 
2 *462:10 *462:16 22.0504 
3 *462:16 *1636:C 20.2728 
4 *462:16 *1438:D 22.684 
5 *462:10 *1632:A 40.4576 
*END

*D_NET *463 0.00541445
*CONN
*I *1442:B I *D sg13g2_nand3_1
*I *1675:A1 I *D sg13g2_a21oi_1
*I *1625:B I *D sg13g2_or2_1
*I *1438:Y O *D sg13g2_nor4_2
*CAP
1 *1442:B 0
2 *1675:A1 0.000676289
3 *1625:B 2.5797e-05
4 *1438:Y 2.56454e-05
5 *463:46 0.000234697
6 *463:12 0.00119774
7 *463:6 0.000755994
8 *1675:A1 *1674:B 0
9 *1675:A1 *972:22 0
10 *1675:A1 *1033:10 0
11 *463:12 *1632:B 0
12 *463:12 *1033:10 0
13 *463:12 *1033:16 0.0012325
14 *463:46 *1442:C 4.79124e-05
15 *463:46 *1442:A 4.14315e-05
16 *463:46 *972:9 7.53965e-05
17 *463:46 *1033:16 5.19964e-05
18 *1438:D *463:12 0
19 *10:10 *463:12 0.000112486
20 *10:42 *1675:A1 0.000242551
21 *10:42 *463:12 6.48756e-05
22 *62:10 *1675:A1 0
23 *129:10 *463:12 0.000181422
24 *165:10 *1675:A1 0
25 *462:16 *463:6 0
26 *462:16 *463:12 0.000447716
*RES
1 *1438:Y *463:6 20.2728 
2 *463:6 *463:12 25.9576 
3 *463:12 *1625:B 40.1936 
4 *463:12 *1675:A1 46.5648 
5 *463:6 *463:46 42.233 
6 *463:46 *1442:B 20 
*END

*D_NET *464 0.00541159
*CONN
*I *1674:B I *D sg13g2_nor2_1
*I *1441:B I *D sg13g2_nor2_2
*I *1786:A I *D sg13g2_buf_2
*I *1628:B1 I *D sg13g2_a21oi_1
*I *1439:X O *D sg13g2_and2_1
*CAP
1 *1674:B 8.91575e-05
2 *1441:B 8.18104e-05
3 *1786:A 0.000751675
4 *1628:B1 5.59535e-05
5 *1439:X 0.000481977
6 *464:27 0.00101529
7 *464:25 0.000451112
8 *464:12 0.000718075
9 *1441:B *1441:A 2.20968e-05
10 *1441:B *466:12 0
11 *1441:B *991:71 0
12 *1786:A *664:32 0
13 *1786:A *991:79 0.00056857
14 *1786:A *1031:107 0
15 *1786:A *1033:10 0
16 *464:12 *1629:B1 0.000151902
17 *464:12 *1883:RESET_B 0
18 *464:12 *974:27 0
19 *464:12 *991:20 0.000388581
20 *464:12 *991:71 0
21 *464:12 *991:93 0.000159514
22 *464:25 *1628:A1 0
23 *464:25 *991:71 0
24 *464:27 *1628:A1 0
25 *464:27 *681:8 0
26 *464:27 *991:79 3.23414e-05
27 *464:27 *1033:10 0
28 *1628:A2 *464:25 0
29 *1629:A2 *1628:B1 8.07262e-05
30 *1629:A2 *464:12 0
31 *1675:A1 *1674:B 0
32 *1676:B *464:12 0
33 *10:42 *1441:B 0
34 *10:42 *1674:B 0.000128351
35 *10:42 *464:25 0.000234455
36 *209:35 *1786:A 0
37 *462:10 *1441:B 0
*RES
1 *1439:X *464:12 25.1568 
2 *464:12 *1628:B1 20.781 
3 *464:12 *464:25 21.7776 
4 *464:25 *464:27 1.7512 
5 *464:27 *1786:A 46.9542 
6 *464:27 *1441:B 40.7832 
7 *464:25 *1674:B 40.968 
*END

*D_NET *466 0.005379
*CONN
*I *1638:A I *D sg13g2_and2_1
*I *1640:B I *D sg13g2_and3_1
*I *1442:C I *D sg13g2_nand3_1
*I *1634:A I *D sg13g2_and2_1
*I *1441:Y O *D sg13g2_nor2_2
*CAP
1 *1638:A 0
2 *1640:B 2.51595e-05
3 *1442:C 0.000384464
4 *1634:A 0
5 *1441:Y 0.000510092
6 *466:61 0.000307669
7 *466:44 0.000593769
8 *466:25 0.00124222
9 *466:12 0.00110691
10 *1442:C *1442:A 2.37541e-05
11 *1442:C *683:10 0.000275875
12 *1442:C *972:9 4.79124e-05
13 *466:12 *1632:B 0
14 *466:12 *1633:A 0
15 *466:25 *683:10 0.000177108
16 *466:44 *1438:B 0
17 *466:44 *685:30 0
18 *466:61 *1865:CLK 0
19 *466:61 *684:37 2.20968e-05
20 *466:61 *685:18 0
21 *466:61 *685:30 0.000112425
22 *1438:D *466:44 0
23 *1441:B *466:12 0
24 *1633:B *466:25 0
25 *1634:B *466:12 4.79124e-05
26 *1634:B *466:25 0
27 *1636:B *466:12 0
28 *1637:A1 *466:61 0.000288014
29 *1640:C *1640:B 1.54556e-05
30 *1640:C *466:44 0
31 *1885:D *466:25 0
32 *10:42 *466:12 0
33 *62:10 *466:25 7.51291e-05
34 *137:10 *1640:B 0
35 *137:10 *466:25 0
36 *137:10 *466:44 7.51291e-05
37 *137:20 *1640:B 0
38 *137:20 *466:44 0
39 *137:20 *466:61 0
40 *462:10 *466:12 0
41 *463:46 *1442:C 4.79124e-05
*RES
1 *1441:Y *466:12 24.7344 
2 *466:12 *1634:A 20 
3 *466:12 *466:25 25.5968 
4 *466:25 *1442:C 43.597 
5 *466:25 *466:44 22.2616 
6 *466:44 *1640:B 20.2728 
7 *466:44 *466:61 43.036 
8 *466:61 *1638:A 20 
*END

*D_NET *467 0.00684429
*CONN
*I *1445:B I *D sg13g2_nand2_1
*I *1448:A1 I *D sg13g2_o21ai_1
*I *1447:B I *D sg13g2_nand2_1
*I *1444:S I *D sg13g2_mux2_1
*I *1449:S I *D sg13g2_mux2_1
*I *1446:A1 I *D sg13g2_o21ai_1
*I *1442:Y O *D sg13g2_nand3_1
*CAP
1 *1445:B 0
2 *1448:A1 2.32038e-05
3 *1447:B 4.60061e-05
4 *1444:S 3.13526e-05
5 *1449:S 0.000233524
6 *1446:A1 0
7 *1442:Y 0.000974026
8 *467:45 0.00039899
9 *467:43 0.000497242
10 *467:35 0.00101199
11 *467:20 0.00091652
12 *467:12 0.00121888
13 *1444:S *973:16 0
14 *1447:B *973:16 0
15 *1448:A1 *973:42 7.51291e-05
16 *467:12 *1442:A 2.21365e-05
17 *467:12 *1445:A 0
18 *467:12 *972:9 0
19 *467:12 *1033:16 0
20 *467:12 *1126:12 0
21 *467:20 *1445:A 0
22 *467:35 *1732:A 0
23 *467:35 *469:10 0
24 *467:35 *973:6 0.000194748
25 *467:35 *973:8 0.00032611
26 *467:35 *973:16 4.77421e-05
27 *467:43 *1448:B1 0.000391835
28 *467:43 *831:11 0
29 *467:43 *973:16 7.99842e-05
30 *1444:A0 *1444:S 7.50795e-05
31 *1444:A0 *1449:S 0
32 *1448:A2 *1448:A1 9.88832e-05
33 *1448:A2 *467:43 0.000180904
34 *1889:D *467:20 0
35 *1889:D *467:35 0
36 *1891:D *1449:S 0
37 *443:8 *1449:S 0
*RES
1 *1442:Y *467:12 28.7472 
2 *467:12 *467:20 2.5058 
3 *467:20 *1446:A1 20 
4 *467:20 *467:35 26.3294 
5 *467:35 *467:43 42.8688 
6 *467:43 *467:45 1.1968 
7 *467:45 *1449:S 42.3232 
8 *467:45 *1444:S 40.2992 
9 *467:43 *1447:B 40.4576 
10 *467:35 *1448:A1 40.3938 
11 *467:12 *1445:B 20 
*END

*D_NET *469 0.00038018
*CONN
*I *1446:B1 I *D sg13g2_o21ai_1
*I *1445:Y O *D sg13g2_nand2_1
*CAP
1 *1446:B1 0
2 *1445:Y 0.000166188
3 *469:10 0.000166188
4 *469:10 *1033:16 0
5 *426:70 *469:10 4.78029e-05
6 *467:35 *469:10 0
*RES
1 *1445:Y *469:10 41.6808 
2 *469:10 *1446:B1 40 
*END

*D_NET *470 0.000798149
*CONN
*I *1448:B1 I *D sg13g2_o21ai_1
*I *1447:Y O *D sg13g2_nand2_1
*CAP
1 *1448:B1 0.000179201
2 *1447:Y 0.000179201
3 *1448:B1 *831:11 0
4 *1448:A2 *1448:B1 4.79124e-05
5 *1890:D *1448:B1 0
6 *467:43 *1448:B1 0.000391835
*RES
1 *1447:Y *1448:B1 42.0504 
*END

*D_NET *473 0.00177926
*CONN
*I *1472:B1 I *D sg13g2_a221oi_1
*I *1457:A I *D sg13g2_nor2_2
*I *1452:Y O *D sg13g2_nor2b_1
*CAP
1 *1472:B1 0
2 *1457:A 2.61084e-05
3 *1452:Y 0.000109314
4 *473:23 0.000338244
5 *473:6 0.000473666
6 *1457:A *1452:B_N 0
7 *1457:A *478:8 0
8 *473:6 *1452:A 7.53575e-05
9 *473:6 *1452:B_N 0
10 *473:6 *1472:A1 0
11 *473:23 *1456:D 9.89225e-05
12 *473:23 *1472:A1 0.000446961
13 *473:23 *477:10 0.000210686
14 *473:23 *1018:41 0
15 *1490:A0 *473:23 0
16 *15:33 *473:23 0
17 *16:10 *1457:A 0
*RES
1 *1452:Y *473:6 20.9328 
2 *473:6 *1457:A 20.2728 
3 *473:6 *473:23 43.2736 
4 *473:23 *1472:B1 20 
*END

*D_NET *476 0.000732305
*CONN
*I *1456:D I *D sg13g2_nor4_1
*I *1455:Y O *D sg13g2_nor2_1
*CAP
1 *1456:D 0.000180055
2 *1455:Y 0.000180055
3 *1456:D *1472:A1 0.000234604
4 *1456:D *707:18 3.86694e-05
5 *1455:B *1456:D 0
6 *1472:B2 *1456:D 0
7 *16:10 *1456:D 0
8 *16:25 *1456:D 0
9 *473:23 *1456:D 9.89225e-05
*RES
1 *1455:Y *1456:D 41.8106 
*END

*D_NET *477 0.000991496
*CONN
*I *1457:B I *D sg13g2_nor2_2
*I *1456:Y O *D sg13g2_nor4_1
*CAP
1 *1457:B 0
2 *1456:Y 0.00027514
3 *477:10 0.00027514
4 *477:10 *1456:B 7.51291e-05
5 *477:10 *707:18 8.00835e-05
6 *477:10 *1016:49 0
7 *477:10 *1016:64 0
8 *16:25 *477:10 7.53182e-05
9 *473:23 *477:10 0.000210686
*RES
1 *1456:Y *477:10 42.42 
2 *477:10 *1457:B 40 
*END

*D_NET *478 0.00812486
*CONN
*I *1483:A1 I *D sg13g2_mux2_1
*I *1518:A0 I *D sg13g2_mux2_1
*I *1459:A I *D sg13g2_or2_1
*I *1480:A I *D sg13g2_nand2_1
*I *1490:S I *D sg13g2_mux2_1
*I *1457:Y O *D sg13g2_nor2_2
*CAP
1 *1483:A1 6.23519e-05
2 *1518:A0 0
3 *1459:A 0
4 *1480:A 0
5 *1490:S 0.000144784
6 *1457:Y 0.000431159
7 *478:59 0.000321624
8 *478:46 0.000387686
9 *478:39 0.000548837
10 *478:27 0.00179179
11 *478:8 0.00182261
12 *1483:A1 *1484:B 0
13 *1483:A1 *500:10 0.000181194
14 *1490:S *1489:A 0
15 *1490:S *1490:A1 0.000282367
16 *478:8 *1463:B 0
17 *478:8 *1465:A1 0
18 *478:8 *1489:A 0.000500371
19 *478:27 *1477:B 0
20 *478:27 *1490:A1 0
21 *478:27 *1496:A1 0.000145586
22 *478:27 *1501:A1 0
23 *478:27 *1504:A1 0.000281647
24 *478:27 *481:10 0.000275935
25 *478:27 *486:10 0
26 *478:27 *498:6 0
27 *478:27 *498:25 0
28 *478:27 *500:10 7.99436e-05
29 *478:27 *513:14 0
30 *478:27 *522:8 0
31 *478:27 *1017:21 0
32 *478:27 *1017:34 0
33 *478:39 *1459:B 0
34 *478:39 *1481:B1 0
35 *478:39 *479:14 2.21754e-05
36 *478:39 *498:35 0
37 *478:39 *498:45 0
38 *478:39 *1017:21 0
39 *478:46 *1459:B 0.000136413
40 *478:46 *1481:B1 0
41 *478:59 *1481:B1 0
42 *478:59 *1482:A1 0
43 *478:59 *498:45 0
44 *478:59 *534:66 0
45 *1457:A *478:8 0
46 *1478:A1 *478:39 0.000112425
47 *1490:A0 *1490:S 0.000287636
48 *1490:A0 *478:8 0
49 *1492:B_N *478:27 8.02233e-05
50 *1492:B_N *478:39 0.000228109
51 *11:8 *1483:A1 0
52 *16:25 *478:27 0
*RES
1 *1457:Y *478:8 23.8984 
2 *478:8 *1490:S 21.9712 
3 *478:8 *478:27 29.9792 
4 *478:27 *478:39 24.5848 
5 *478:39 *1480:A 20 
6 *478:39 *478:46 0.7216 
7 *478:46 *1459:A 20 
8 *478:46 *478:59 42.8688 
9 *478:59 *1518:A0 20 
10 *478:27 *1483:A1 40.7216 
*END

*D_NET *479 0.00529337
*CONN
*I *1480:B I *D sg13g2_nand2_1
*I *1459:B I *D sg13g2_or2_1
*I *1458:Y O *D sg13g2_nor3_2
*CAP
1 *1480:B 0
2 *1459:B 0.0001357
3 *1458:Y 0.00048521
4 *479:14 0.0011642
5 *479:10 0.00151371
6 *479:10 *1458:C 9.19891e-05
7 *479:10 *1709:A 0.000393929
8 *479:10 *1709:B 0.000553175
9 *479:10 *1716:A 0
10 *479:10 *1716:B 0.000234832
11 *479:10 *1717:B 0.00024328
12 *479:10 *742:17 0.000243593
13 *479:10 *978:20 0
14 *479:14 *1478:A0 0
15 *479:14 *1711:A 0
16 *479:14 *1714:A 0
17 *479:14 *498:35 0
18 *479:14 *705:10 0
19 *479:14 *989:42 0
20 *1712:A1 *479:14 0
21 *1917:D *479:14 0
22 *196:10 *479:10 7.51684e-05
23 *478:39 *1459:B 0
24 *478:39 *479:14 2.21754e-05
25 *478:46 *1459:B 0.000136413
*RES
1 *1458:Y *479:10 46.116 
2 *479:10 *479:14 30.2256 
3 *479:14 *1459:B 21.5488 
4 *479:14 *1480:B 20 
*END

*D_NET *480 0.000440199
*CONN
*I *1482:A1 I *D sg13g2_a21oi_1
*I *1459:X O *D sg13g2_or2_1
*CAP
1 *1482:A1 0.000209031
2 *1459:X 0.000209031
3 *1482:A1 *1481:B1 2.21365e-05
4 *1482:A1 *1482:B1 0
5 *1482:A1 *976:42 0
6 *478:59 *1482:A1 0
*RES
1 *1459:X *1482:A1 41.9712 
*END

*D_NET *481 0.00230966
*CONN
*I *1488:A2 I *D sg13g2_o21ai_1
*I *1496:A1 I *D sg13g2_a21oi_1
*I *1462:A I *D sg13g2_nand2_1
*I *1460:Y O *D sg13g2_nor2_1
*CAP
1 *1488:A2 6.38803e-05
2 *1496:A1 0.000109766
3 *1462:A 0
4 *1460:Y 0.000394693
5 *481:10 0.000294957
6 *481:6 0.000643764
7 *1488:A2 *509:26 0
8 *1496:A1 *1496:A2 0
9 *1496:A1 *483:8 0.000177735
10 *481:6 *1460:B 2.21754e-05
11 *481:6 *482:10 0.000181169
12 *481:6 *506:12 0
13 *481:6 *511:8 0
14 *481:6 *1018:18 0
15 *481:10 *1496:A2 0
16 *481:10 *482:10 0
17 *1461:B *481:6 0
18 *1488:A1 *481:6 0
19 *16:25 *481:6 0
20 *478:27 *1496:A1 0.000145586
21 *478:27 *481:10 0.000275935
*RES
1 *1460:Y *481:6 23.256 
2 *481:6 *481:10 21.5664 
3 *481:10 *1462:A 40 
4 *481:10 *1496:A1 41.1968 
5 *481:6 *1488:A2 20.572 
*END

*D_NET *482 0.00193254
*CONN
*I *1496:A2 I *D sg13g2_a21oi_1
*I *1462:B I *D sg13g2_nand2_1
*I *1461:Y O *D sg13g2_nor2_1
*CAP
1 *1496:A2 0.000259292
2 *1462:B 0
3 *1461:Y 0.000229273
4 *482:10 0.000488565
5 *1496:A2 *1496:B1 1.43629e-05
6 *1496:A2 *1504:A1 0
7 *1496:A2 *483:8 0.000242357
8 *1496:A2 *517:8 0
9 *1476:C *1496:A2 0.000259491
10 *1476:C *482:10 0.00014508
11 *1496:A1 *1496:A2 0
12 *16:25 *482:10 0
13 *16:29 *482:10 0.000112946
14 *481:6 *482:10 0.000181169
15 *481:10 *1496:A2 0
16 *481:10 *482:10 0
*RES
1 *1461:Y *482:10 42.1032 
2 *482:10 *1462:B 40 
3 *482:10 *1496:A2 42.288 
*END

*D_NET *483 0.002587
*CONN
*I *1466:A1 I *D sg13g2_a21oi_1
*I *1462:Y O *D sg13g2_nand2_1
*CAP
1 *1466:A1 0.000194992
2 *1462:Y 0.000376597
3 *483:8 0.000571589
4 *1466:A1 *1476:A 0.000181232
5 *1466:A1 *487:30 0.000551147
6 *483:8 *487:30 8.03968e-05
7 *483:8 *493:29 0.000210954
8 *1476:C *1466:A1 0
9 *1476:C *483:8 0
10 *1496:A1 *483:8 0.000177735
11 *1496:A2 *483:8 0.000242357
*RES
1 *1462:Y *483:8 43.5992 
2 *483:8 *1466:A1 42.4112 
*END

*D_NET *484 0.000537461
*CONN
*I *1465:A1 I *D sg13g2_a21o_1
*I *1463:Y O *D sg13g2_nand2_1
*CAP
1 *1465:A1 0.000268731
2 *1463:Y 0.000268731
3 *1465:A1 *1018:22 0
4 *1465:B1 *1465:A1 0
5 *478:8 *1465:A1 0
*RES
1 *1463:Y *1465:A1 41.8392 
*END

*D_NET *485 0.00183426
*CONN
*I *1475:A1 I *D sg13g2_a21oi_1
*I *1465:A2 I *D sg13g2_a21o_1
*I *1464:X O *D sg13g2_or3_1
*CAP
1 *1475:A1 2.33719e-05
2 *1465:A2 0
3 *1464:X 0.000219655
4 *485:14 0.000333094
5 *485:6 0.000576121
6 *1475:A1 *1475:A2 5.3072e-05
7 *485:6 *1464:C 0.000447339
8 *485:6 *1473:B1 0
9 *485:6 *1475:A2 0.000181611
10 *485:14 *707:61 0
11 *485:14 *1018:18 0
12 *485:14 *1019:22 0
*RES
1 *1464:X *485:6 22.8336 
2 *485:6 *485:14 42.816 
3 *485:14 *1465:A2 20 
4 *485:6 *1475:A1 20.2992 
*END

*D_NET *486 0.00165737
*CONN
*I *1466:A2 I *D sg13g2_a21oi_1
*I *1465:X O *D sg13g2_a21o_1
*CAP
1 *1466:A2 6.01183e-05
2 *1465:X 0.000411
3 *486:10 0.000471118
4 *1466:A2 *1473:B1 0
5 *1466:A2 *1476:A 0
6 *1466:A2 *1476:B 7.51688e-05
7 *486:10 *487:10 0.000145198
8 *486:10 *493:29 4.78029e-05
9 *486:10 *496:12 0
10 *486:10 *1018:22 0.000446962
11 *486:10 *1019:22 0
12 *478:27 *486:10 0
*RES
1 *1465:X *486:10 43.608 
2 *486:10 *1466:A2 40.572 
*END

*D_NET *487 0.00197222
*CONN
*I *1497:A I *D sg13g2_nor2_1
*I *1477:A I *D sg13g2_nor4_2
*I *1466:Y O *D sg13g2_a21oi_1
*CAP
1 *1497:A 0
2 *1477:A 0
3 *1466:Y 0.000454633
4 *487:30 0.000278094
5 *487:10 0.000176539
6 *487:10 *1473:B1 2.20968e-05
7 *487:10 *1476:B 5.30323e-05
8 *487:10 *493:10 0
9 *487:10 *493:29 0
10 *487:10 *496:12 7.51291e-05
11 *487:10 *1018:18 0
12 *487:10 *1018:99 0.000135958
13 *487:30 *1476:A 0
14 *1466:A1 *487:30 0.000551147
15 *483:8 *487:30 8.03968e-05
16 *486:10 *487:10 0.000145198
*RES
1 *1466:Y *487:10 41.6808 
2 *487:10 *1477:A 40 
3 *1466:Y *487:30 43.3264 
4 *487:30 *1497:A 40 
*END

*D_NET *488 0.000282729
*CONN
*I *1469:A2 I *D sg13g2_o21ai_1
*I *1467:Y O *D sg13g2_nand2b_1
*CAP
1 *1469:A2 0.000117408
2 *1467:Y 0.000117408
3 *1469:A2 *1467:A_N 0
4 *1469:A2 *1469:B1 4.79124e-05
5 *1469:A2 *1469:A1 0
6 *1469:A2 *489:8 0
*RES
1 *1467:Y *1469:A2 41.1792 
*END

*D_NET *489 0.00103383
*CONN
*I *1471:A1 I *D sg13g2_mux2_1
*I *1469:B1 I *D sg13g2_o21ai_1
*I *1468:Y O *D sg13g2_inv_1
*CAP
1 *1471:A1 4.27455e-05
2 *1469:B1 0.000182248
3 *1468:Y 0.000115181
4 *489:8 0.000340175
5 *1469:B1 *1467:A_N 0
6 *1469:B1 *1471:S 0.000181383
7 *1469:B1 *490:10 0
8 *1469:B1 *1016:10 0
9 *1471:A1 *490:10 0
10 *1471:A1 *491:12 7.53965e-05
11 *1471:A1 *1016:10 0
12 *489:8 *1016:10 4.8786e-05
13 *1469:A2 *1469:B1 4.79124e-05
14 *1469:A2 *489:8 0
*RES
1 *1468:Y *489:8 21.2056 
2 *489:8 *1469:B1 21.8392 
3 *489:8 *1471:A1 20.5104 
*END

*D_NET *490 0.00147789
*CONN
*I *1472:A2 I *D sg13g2_a221oi_1
*I *1469:Y O *D sg13g2_o21ai_1
*CAP
1 *1472:A2 1.56929e-05
2 *1469:Y 0.000314431
3 *490:10 0.000330124
4 *490:10 *1460:A 0.000371793
5 *490:10 *1467:A_N 2.20968e-05
6 *490:10 *1471:S 0.000181383
7 *490:10 *491:12 2.21754e-05
8 *490:10 *707:61 0.000177108
9 *1469:B1 *490:10 0
10 *1471:A1 *490:10 0
11 *1490:A0 *1472:A2 4.30888e-05
*RES
1 *1469:Y *490:10 43.3176 
2 *490:10 *1472:A2 40.1716 
*END

*D_NET *491 0.0032631
*CONN
*I *1483:A0 I *D sg13g2_mux2_1
*I *1471:A0 I *D sg13g2_mux2_1
*I *1470:Y O *D sg13g2_nor2_1
*CAP
1 *1483:A0 0.000296496
2 *1471:A0 0
3 *1470:Y 0
4 *491:12 0.000554732
5 *491:4 0.000851229
6 *1483:A0 *1479:B 1.55978e-05
7 *1483:A0 *1479:A_N 0.000180374
8 *1483:A0 *1483:S 0
9 *1483:A0 *500:10 0.000443949
10 *1483:A0 *705:27 0
11 *1483:A0 *1015:25 0.000286249
12 *491:12 *1460:A 0
13 *491:12 *707:29 0
14 *491:12 *1015:14 0.000536896
15 *491:12 *1016:10 0
16 *1471:A1 *491:12 7.53965e-05
17 *11:8 *1483:A0 0
18 *490:10 *491:12 2.21754e-05
*RES
1 *1470:Y *491:4 20 
2 *491:4 *491:12 45.6408 
3 *491:12 *1471:A0 20 
4 *491:4 *1483:A0 23.5288 
*END

*D_NET *492 0.00144953
*CONN
*I *1472:C1 I *D sg13g2_a221oi_1
*I *1471:X O *D sg13g2_mux2_1
*CAP
1 *1472:C1 0
2 *1471:X 0.000362006
3 *492:10 0.000362006
4 *492:10 *1460:A 0.000500411
5 *492:10 *707:53 0
6 *492:10 *707:81 0
7 *1465:B1 *492:10 4.77421e-05
8 *15:29 *492:10 0.000177361
*RES
1 *1471:X *492:10 43.3704 
2 *492:10 *1472:C1 40 
*END

*D_NET *493 0.00367426
*CONN
*I *1497:B I *D sg13g2_nor2_1
*I *1477:B I *D sg13g2_nor4_2
*I *1472:Y O *D sg13g2_a221oi_1
*CAP
1 *1497:B 1.16522e-05
2 *1477:B 3.34916e-05
3 *1472:Y 0.000632576
4 *493:29 0.00051151
5 *493:10 0.00116593
6 *1477:B *496:18 2.20319e-05
7 *493:10 *498:25 0
8 *493:10 *1018:18 0
9 *493:29 *1476:B 0
10 *493:29 *1477:D 0
11 *493:29 *496:12 0.000112932
12 *493:29 *496:18 0
13 *493:29 *497:10 0
14 *493:29 *517:8 0
15 *493:29 *518:10 0
16 *1476:C *493:10 0
17 *1490:A0 *493:10 0
18 *15:33 *493:10 0
19 *16:25 *493:10 0.000925386
20 *478:27 *1477:B 0
21 *483:8 *493:29 0.000210954
22 *486:10 *493:29 4.78029e-05
23 *487:10 *493:10 0
24 *487:10 *493:29 0
*RES
1 *1472:Y *493:10 45.7992 
2 *493:10 *1477:B 40.2992 
3 *493:10 *493:29 44.4352 
4 *493:29 *1497:B 40.0902 
*END

*D_NET *494 0.000576075
*CONN
*I *1475:A2 I *D sg13g2_a21oi_1
*I *1473:Y O *D sg13g2_o21ai_1
*CAP
1 *1475:A2 0.000125856
2 *1473:Y 0.000125856
3 *1475:A2 *1464:C 0
4 *1475:A2 *1473:B1 2.20968e-05
5 *1475:A2 *1475:B1 6.75844e-05
6 *1475:A2 *1476:A 0
7 *1475:A1 *1475:A2 5.3072e-05
8 *485:6 *1475:A2 0.000181611
*RES
1 *1473:Y *1475:A2 41.4168 
*END

*D_NET *495 0.000840849
*CONN
*I *1475:B1 I *D sg13g2_a21oi_1
*I *1474:Y O *D sg13g2_inv_1
*CAP
1 *1475:B1 2.20668e-05
2 *1474:Y 0.000280994
3 *495:12 0.00030306
4 *1475:B1 *1473:B1 2.21365e-05
5 *495:12 *1464:C 0
6 *495:12 *1473:B1 2.20968e-05
7 *495:12 *1473:A1 0
8 *495:12 *707:61 0.000122911
9 *495:12 *1018:75 0
10 *495:12 *1019:22 0
11 *1475:A2 *1475:B1 6.75844e-05
*RES
1 *1474:Y *495:12 42.2176 
2 *495:12 *1475:B1 40.2684 
*END

*D_NET *496 0.00204237
*CONN
*I *1477:C I *D sg13g2_nor4_2
*I *1496:B1 I *D sg13g2_a21oi_1
*I *1475:Y O *D sg13g2_a21oi_1
*CAP
1 *1477:C 0
2 *1496:B1 0.000142541
3 *1475:Y 0.000383759
4 *496:18 0.000229434
5 *496:12 0.000470653
6 *1496:B1 *1477:D 0.000127471
7 *1496:B1 *498:6 0.000233222
8 *496:12 *1473:B1 0
9 *496:12 *497:10 0
10 *496:12 *1019:22 0.000230839
11 *1477:B *496:18 2.20319e-05
12 *1496:A2 *1496:B1 1.43629e-05
13 *486:10 *496:12 0
14 *487:10 *496:12 7.51291e-05
15 *493:29 *496:12 0.000112932
16 *493:29 *496:18 0
*RES
1 *1475:Y *496:12 43.2736 
2 *496:12 *496:18 20.7832 
3 *496:18 *1496:B1 21.5972 
4 *496:18 *1477:C 20 
*END

*D_NET *497 0.00087681
*CONN
*I *1477:D I *D sg13g2_nor4_2
*I *1476:Y O *D sg13g2_nor3_1
*CAP
1 *1477:D 4.25392e-05
2 *1476:Y 0.000211294
3 *497:10 0.000253834
4 *1476:C *497:10 0.000241672
5 *1496:B1 *1477:D 0.000127471
6 *493:29 *1477:D 0
7 *493:29 *497:10 0
8 *496:12 *497:10 0
*RES
1 *1476:Y *497:10 41.892 
2 *497:10 *1477:D 40.5104 
*END

*D_NET *498 0.00797648
*CONN
*I *1483:S I *D sg13g2_mux2_1
*I *1478:S I *D sg13g2_mux2_1
*I *1481:A1 I *D sg13g2_o21ai_1
*I *1517:A2 I *D sg13g2_o21ai_1
*I *1504:A1 I *D sg13g2_a22oi_1
*I *1477:Y O *D sg13g2_nor4_2
*CAP
1 *1483:S 0.000147585
2 *1478:S 0
3 *1481:A1 5.77617e-05
4 *1517:A2 0
5 *1504:A1 0.000384966
6 *1477:Y 9.60883e-05
7 *498:45 0.000627822
8 *498:35 0.00100357
9 *498:27 0.000489558
10 *498:25 0.00113887
11 *498:6 0.00130077
12 *1481:A1 *1478:A0 0
13 *1481:A1 *1481:B1 4.79124e-05
14 *1481:A1 *976:42 0
15 *1504:A1 *1502:A0 0
16 *1504:A1 *1504:B1 9.58045e-05
17 *1504:A1 *511:8 0
18 *1504:A1 *511:17 0
19 *498:25 *1017:21 0.000307379
20 *498:25 *1017:34 0.000325916
21 *498:25 *1018:18 0
22 *498:25 *1019:86 0.000341553
23 *498:27 *1017:21 0.000308242
24 *498:35 *1478:A0 0.000128201
25 *498:35 *1481:B1 4.79124e-05
26 *498:35 *976:42 0
27 *498:35 *1017:21 8.00835e-05
28 *498:45 *1516:A 0
29 *498:45 *1517:B1 0
30 *498:45 *534:29 0
31 *498:45 *534:53 0
32 *498:45 *1017:21 0
33 *1476:C *498:25 0.000323647
34 *1478:A1 *498:35 0
35 *1483:A0 *1483:S 0
36 *1496:A2 *1504:A1 0
37 *1496:B1 *498:6 0.000233222
38 *11:8 *1483:S 0
39 *16:29 *498:25 0.000207963
40 *84:8 *498:45 0
41 *478:27 *1504:A1 0.000281647
42 *478:27 *498:6 0
43 *478:27 *498:25 0
44 *478:39 *498:35 0
45 *478:39 *498:45 0
46 *478:59 *498:45 0
47 *479:14 *498:35 0
48 *493:10 *498:25 0
*RES
1 *1477:Y *498:6 20.9328 
2 *498:6 *1504:A1 23.4452 
3 *498:6 *498:25 28.4216 
4 *498:25 *498:27 1.7512 
5 *498:27 *498:35 22.9304 
6 *498:35 *498:45 45.7024 
7 *498:45 *1517:A2 20 
8 *498:35 *1481:A1 20.6248 
9 *498:27 *1478:S 40 
10 *498:25 *1483:S 41.2056 
*END

*D_NET *499 0.00102799
*CONN
*I *1482:A2 I *D sg13g2_a21oi_1
*I *1478:X O *D sg13g2_mux2_1
*CAP
1 *1482:A2 0
2 *1478:X 0.000263903
3 *499:10 0.000263903
4 *499:10 *1484:B 0
5 *499:10 *1486:B1 0
6 *499:10 *503:8 0
7 *499:10 *505:8 0
8 *499:10 *527:8 0
9 *499:10 *976:42 0.000500182
*RES
1 *1478:X *499:10 42.8424 
2 *499:10 *1482:A2 40 
*END

*D_NET *500 0.00393159
*CONN
*I *1501:B1 I *D sg13g2_a221oi_1
*I *1493:B1 I *D sg13g2_a22oi_1
*I *1481:A2 I *D sg13g2_o21ai_1
*I *1479:Y O *D sg13g2_nand2b_1
*CAP
1 *1501:B1 0.000258609
2 *1493:B1 6.66329e-06
3 *1481:A2 0.00030174
4 *1479:Y 0.000197439
5 *500:29 0.000360756
6 *500:16 0.000594362
7 *500:10 0.000394576
8 *1481:A2 *503:8 0
9 *1493:B1 *1493:B2 3.36976e-05
10 *1493:B1 *512:12 3.36976e-05
11 *1501:B1 *512:27 0
12 *1501:B1 *513:14 0
13 *1501:B1 *514:10 0
14 *500:10 *1015:25 0.00070911
15 *500:16 *512:12 0
16 *500:16 *1015:25 0.000128112
17 *500:16 *1015:38 0.000127923
18 *500:29 *1015:38 0
19 *1483:A0 *500:10 0.000443949
20 *1483:A1 *500:10 0.000181194
21 *1492:B_N *1481:A2 0
22 *1492:B_N *500:10 7.98231e-05
23 *478:27 *500:10 7.99436e-05
*RES
1 *1479:Y *500:10 43.2912 
2 *500:10 *500:16 41.5664 
3 *500:16 *1481:A2 42.7896 
4 *500:16 *500:29 0.8272 
5 *500:29 *1493:B1 40.1342 
6 *500:29 *1501:B1 42.1208 
*END

*D_NET *501 0.000670692
*CONN
*I *1481:B1 I *D sg13g2_o21ai_1
*I *1480:Y O *D sg13g2_nand2_1
*CAP
1 *1481:B1 0.000276365
2 *1480:Y 0.000276365
3 *1481:B1 *1482:B1 0
4 *1481:B1 *976:42 0
5 *1481:A1 *1481:B1 4.79124e-05
6 *1482:A1 *1481:B1 2.21365e-05
7 *478:39 *1481:B1 0
8 *478:46 *1481:B1 0
9 *478:59 *1481:B1 0
10 *498:35 *1481:B1 4.79124e-05
*RES
1 *1480:Y *1481:B1 42.4288 
*END

*D_NET *502 0.000220337
*CONN
*I *1482:B1 I *D sg13g2_a21oi_1
*I *1481:Y O *D sg13g2_o21ai_1
*CAP
1 *1482:B1 7.24897e-05
2 *1481:Y 7.24897e-05
3 *1482:B1 *976:42 7.53575e-05
4 *1481:B1 *1482:B1 0
5 *1482:A1 *1482:B1 0
*RES
1 *1481:Y *1482:B1 40.8404 
*END

*D_NET *503 0.00111557
*CONN
*I *1486:A1 I *D sg13g2_a21oi_1
*I *1487:A I *D sg13g2_nor2_1
*I *1482:Y O *D sg13g2_a21oi_1
*CAP
1 *1486:A1 6.4864e-05
2 *1487:A 0.000122926
3 *1482:Y 0.000197064
4 *503:8 0.000384854
5 *1486:A1 *505:8 7.50795e-05
6 *1487:A *1486:A2 1.53311e-05
7 *1487:A *1486:B1 0.000180664
8 *1487:A *1487:B 7.47893e-05
9 *1481:A2 *503:8 0
10 *499:10 *503:8 0
*RES
1 *1482:Y *503:8 41.7512 
2 *503:8 *1487:A 41.4784 
3 *503:8 *1486:A1 40.7568 
*END

*D_NET *504 0.000391198
*CONN
*I *1484:B I *D sg13g2_xor2_1
*I *1483:X O *D sg13g2_mux2_1
*CAP
1 *1484:B 0.000195599
2 *1483:X 0.000195599
3 *1484:B *976:42 0
4 *1484:B *1015:25 0
5 *1483:A1 *1484:B 0
6 *11:8 *1484:B 0
7 *499:10 *1484:B 0
*RES
1 *1483:X *1484:B 41.8128 
*END

*D_NET *505 0.00110059
*CONN
*I *1487:B I *D sg13g2_nor2_1
*I *1486:A2 I *D sg13g2_a21oi_1
*I *1484:X O *D sg13g2_xor2_1
*CAP
1 *1487:B 8.35769e-05
2 *1486:A2 2.06714e-05
3 *1484:X 0.000145234
4 *505:8 0.000249482
5 *1487:B *1506:A1 0.000280744
6 *1487:B *1506:A2 0
7 *505:8 *1486:B1 2.80969e-05
8 *505:8 *1506:A1 0.000127582
9 *505:8 *512:12 0
10 *1486:A1 *505:8 7.50795e-05
11 *1487:A *1486:A2 1.53311e-05
12 *1487:A *1487:B 7.47893e-05
13 *499:10 *505:8 0
*RES
1 *1484:X *505:8 21.628 
2 *505:8 *1486:A2 20.2728 
3 *505:8 *1487:B 21.2056 
*END

*D_NET *506 0.00455329
*CONN
*I *1495:A0 I *D sg13g2_mux2_1
*I *1499:A_N I *D sg13g2_nand2b_1
*I *1520:A2 I *D sg13g2_o21ai_1
*I *1486:B1 I *D sg13g2_a21oi_1
*I *1488:B1 I *D sg13g2_o21ai_1
*I *1485:Y O *D sg13g2_nor2_2
*CAP
1 *1495:A0 0.000220496
2 *1499:A_N 2.43702e-05
3 *1520:A2 0
4 *1486:B1 0.000495076
5 *1488:B1 0
6 *1485:Y 0.000249173
7 *506:51 0.000298707
8 *506:27 0.000758567
9 *506:25 0.0008047
10 *506:12 0.000736541
11 *1486:B1 *1506:A2 7.508e-05
12 *1486:B1 *526:8 0
13 *1486:B1 *534:75 0
14 *1486:B1 *976:42 0
15 *1495:A0 *1495:A1 2.20968e-05
16 *1495:A0 *509:26 0.000276128
17 *1495:A0 *514:31 0.000308469
18 *1499:A_N *1499:B 7.51291e-05
19 *506:12 *1501:C1 0
20 *506:25 *1501:C1 0
21 *506:25 *1501:A1 0
22 *506:25 *509:26 0
23 *506:25 *511:8 0
24 *506:25 *514:14 0
25 *506:25 *514:23 0
26 *506:27 *514:10 0
27 *506:27 *526:8 0
28 *506:51 *511:38 0
29 *1487:A *1486:B1 0.000180664
30 *1488:A1 *506:12 0
31 *481:6 *506:12 0
32 *499:10 *1486:B1 0
33 *505:8 *1486:B1 2.80969e-05
*RES
1 *1485:Y *506:12 22.2792 
2 *506:12 *1488:B1 20 
3 *506:12 *506:25 24.224 
4 *506:25 *506:27 2.86 
5 *506:27 *1486:B1 44.8378 
6 *506:27 *1520:A2 40 
7 *506:25 *506:51 0.4576 
8 *506:51 *1499:A_N 40.2992 
9 *506:51 *1495:A0 42.2352 
*END

*D_NET *507 0.000808569
*CONN
*I *1506:A1 I *D sg13g2_o21ai_1
*I *1486:Y O *D sg13g2_a21oi_1
*CAP
1 *1506:A1 0.000200122
2 *1486:Y 0.000200122
3 *1506:A1 *1520:A1 0
4 *1487:B *1506:A1 0.000280744
5 *505:8 *1506:A1 0.000127582
*RES
1 *1486:Y *1506:A1 42.2066 
*END

*D_NET *508 0.000274703
*CONN
*I *1506:A2 I *D sg13g2_o21ai_1
*I *1487:Y O *D sg13g2_nor2_1
*CAP
1 *1506:A2 9.98117e-05
2 *1487:Y 9.98117e-05
3 *1506:A2 *1520:B1 0
4 *1506:A2 *976:42 0
5 *1486:B1 *1506:A2 7.508e-05
6 *1487:B *1506:A2 0
*RES
1 *1487:Y *1506:A2 40.9944 
*END

*D_NET *509 0.00323782
*CONN
*I *1500:A2 I *D sg13g2_o21ai_1
*I *1495:A1 I *D sg13g2_mux2_1
*I *1501:C1 I *D sg13g2_a221oi_1
*I *1488:Y O *D sg13g2_o21ai_1
*CAP
1 *1500:A2 0.000173359
2 *1495:A1 1.63096e-05
3 *1501:C1 0.000192899
4 *1488:Y 0.000785351
5 *509:26 0.000782121
6 *1495:A1 *1505:A2 7.51291e-05
7 *1500:A2 results[109] 0
8 *1500:A2 *514:31 0
9 *1500:A2 *517:29 0
10 *1500:A2 *520:10 0.000243088
11 *1501:C1 *1501:A1 0
12 *1501:C1 *1777:A 0
13 *509:26 *1495:S 0
14 *509:26 *1499:B 0.000128161
15 *509:26 *1505:A2 0
16 *509:26 *511:8 0
17 *509:26 *511:17 0
18 *509:26 *511:38 0
19 *509:26 *514:23 0.000234455
20 *509:26 *520:10 0.000308722
21 *1488:A2 *509:26 0
22 *1495:A0 *1495:A1 2.20968e-05
23 *1495:A0 *509:26 0.000276128
24 *506:12 *1501:C1 0
25 *506:25 *1501:C1 0
26 *506:25 *509:26 0
*RES
1 *1488:Y *1501:C1 41.7072 
2 *1488:Y *509:26 45.7024 
3 *509:26 *1495:A1 40.2992 
4 *509:26 *1500:A2 41.5664 
*END

*D_NET *510 0.000722736
*CONN
*I *1490:A1 I *D sg13g2_mux2_1
*I *1489:X O *D sg13g2_xor2_1
*CAP
1 *1490:A1 0.000220185
2 *1489:X 0.000220185
3 *1490:A0 *1490:A1 0
4 *1490:S *1490:A1 0.000282367
5 *478:27 *1490:A1 0
*RES
1 *1489:X *1490:A1 42.0504 
*END

*D_NET *511 0.00230952
*CONN
*I *1494:A I *D sg13g2_xnor2_1
*I *1504:A2 I *D sg13g2_a22oi_1
*I *1502:S I *D sg13g2_mux2_1
*I *1490:X O *D sg13g2_mux2_1
*CAP
1 *1494:A 0
2 *1504:A2 0
3 *1502:S 2.52799e-05
4 *1490:X 0.000258989
5 *511:38 0.000229738
6 *511:25 0.000214463
7 *511:17 0.000572444
8 *511:8 0.000412511
9 *1502:S *1502:A0 0
10 *511:17 *1502:A0 0.000234455
11 *511:25 *514:31 0
12 *511:38 *1495:S 2.20968e-05
13 *511:38 *1502:A0 0.000128351
14 *511:38 *515:8 0.000211192
15 *511:38 *522:8 0
16 *1504:A1 *511:8 0
17 *1504:A1 *511:17 0
18 *481:6 *511:8 0
19 *506:25 *511:8 0
20 *506:51 *511:38 0
21 *509:26 *511:8 0
22 *509:26 *511:17 0
23 *509:26 *511:38 0
*RES
1 *1490:X *511:8 22.2616 
2 *511:8 *1502:S 20.2728 
3 *511:8 *511:17 1.5664 
4 *511:17 *511:25 41.8942 
5 *511:25 *1504:A2 20 
6 *511:17 *511:38 42.4728 
7 *511:38 *1494:A 20 
*END

*D_NET *512 0.00147017
*CONN
*I *1501:A2 I *D sg13g2_a221oi_1
*I *1493:A2 I *D sg13g2_a22oi_1
*I *1491:Y O *D sg13g2_nand2b_1
*CAP
1 *1501:A2 0
2 *1493:A2 0
3 *1491:Y 0.00039451
4 *512:27 0.000261767
5 *512:12 0.000656277
6 *512:12 *1493:B2 2.21361e-05
7 *512:12 *1493:A1 0.000101779
8 *512:27 *514:10 0
9 *1493:B1 *512:12 3.36976e-05
10 *1501:B1 *512:27 0
11 *500:16 *512:12 0
12 *505:8 *512:12 0
*RES
1 *1491:Y *512:12 23.311 
2 *512:12 *1493:A2 20 
3 *512:12 *512:27 42.057 
4 *512:27 *1501:A2 20 
*END

*D_NET *513 0.00117411
*CONN
*I *1493:B2 I *D sg13g2_a22oi_1
*I *1501:B2 I *D sg13g2_a221oi_1
*I *1492:Y O *D sg13g2_nor2b_1
*CAP
1 *1493:B2 9.55981e-05
2 *1501:B2 0
3 *1492:Y 5.15957e-05
4 *513:14 0.000201629
5 *513:8 0.000348823
6 *1493:B2 *1493:A1 2.66105e-05
7 *1493:B2 *514:10 7.53182e-05
8 *513:8 *1493:A1 7.51688e-05
9 *513:14 *1501:A1 0.000243533
10 *1493:B1 *1493:B2 3.36976e-05
11 *1501:B1 *513:14 0
12 *478:27 *513:14 0
13 *512:12 *1493:B2 2.21361e-05
*RES
1 *1492:Y *513:8 20.572 
2 *513:8 *513:14 41.7512 
3 *513:14 *1501:B2 20 
4 *513:8 *1493:B2 20.9328 
*END

*D_NET *514 0.00298068
*CONN
*I *1499:B I *D sg13g2_nand2b_1
*I *1500:A1 I *D sg13g2_o21ai_1
*I *1494:B I *D sg13g2_xnor2_1
*I *1493:Y O *D sg13g2_a22oi_1
*CAP
1 *1499:B 7.87837e-05
2 *1500:A1 0
3 *1494:B 0
4 *1493:Y 0.0004322
5 *514:31 0.000403456
6 *514:23 0.000582414
7 *514:14 0.000142208
8 *514:10 0.000474233
9 *514:10 *1501:A1 0
10 *514:10 *522:8 0
11 *514:31 *1502:A0 4.58509e-05
12 *514:31 *515:8 0
13 *1493:B2 *514:10 7.53182e-05
14 *1495:A0 *514:31 0.000308469
15 *1499:A_N *1499:B 7.51291e-05
16 *1500:A2 *514:31 0
17 *1501:B1 *514:10 0
18 *506:25 *514:14 0
19 *506:25 *514:23 0
20 *506:27 *514:10 0
21 *509:26 *1499:B 0.000128161
22 *509:26 *514:23 0.000234455
23 *511:25 *514:31 0
24 *512:27 *514:10 0
*RES
1 *1493:Y *514:10 43.1504 
2 *514:10 *514:14 20.2992 
3 *514:14 *1494:B 20 
4 *514:14 *514:23 1.2056 
5 *514:23 *514:31 43.4122 
6 *514:31 *1500:A1 20 
7 *514:23 *1499:B 21.0846 
*END

*D_NET *515 0.000618253
*CONN
*I *1495:S I *D sg13g2_mux2_1
*I *1494:Y O *D sg13g2_xnor2_1
*CAP
1 *1495:S 3.30425e-05
2 *1494:Y 0.00015944
3 *515:8 0.000192482
4 *1495:S *1502:A0 0
5 *509:26 *1495:S 0
6 *511:38 *1495:S 2.20968e-05
7 *511:38 *515:8 0.000211192
8 *514:31 *515:8 0
*RES
1 *1494:Y *515:8 41.3816 
2 *515:8 *1495:S 40.2992 
*END

*D_NET *516 0.000168821
*CONN
*I *1505:A1 I *D sg13g2_o21ai_1
*I *1495:X O *D sg13g2_mux2_1
*CAP
1 *1505:A1 8.44106e-05
2 *1495:X 8.44106e-05
3 *1505:A1 *1505:A2 0
*RES
1 *1495:X *1505:A1 40.946 
*END

*D_NET *517 0.00140224
*CONN
*I *1498:A_N I *D sg13g2_nand2b_1
*I *1503:B_N I *D sg13g2_nor2b_1
*I *1496:Y O *D sg13g2_a21oi_1
*CAP
1 *1498:A_N 0
2 *1503:B_N 7.96377e-05
3 *1496:Y 0.000150838
4 *517:29 0.000353228
5 *517:8 0.000583704
6 *1503:B_N *1504:B2 0
7 *517:8 *518:10 0
8 *517:29 *1504:B2 0
9 *517:29 *1505:B1 0.000234832
10 *517:29 *518:10 0
11 *1496:A2 *517:8 0
12 *1500:A2 *517:29 0
13 *493:29 *517:8 0
*RES
1 *1496:Y *517:8 21.2056 
2 *517:8 *1503:B_N 20.7568 
3 *517:8 *517:29 43.6256 
4 *517:29 *1498:A_N 20 
*END

*D_NET *518 0.00109475
*CONN
*I *1503:A I *D sg13g2_nor2b_1
*I *1498:B I *D sg13g2_nand2b_1
*I *1497:Y O *D sg13g2_nor2_1
*CAP
1 *1503:A 0
2 *1498:B 1.778e-05
3 *1497:Y 0.000299658
4 *518:16 0.000224987
5 *518:10 0.000506864
6 *1498:B *1502:A0 4.54596e-05
7 *1498:B *1505:B1 0
8 *493:29 *518:10 0
9 *517:8 *518:10 0
10 *517:29 *518:10 0
*RES
1 *1497:Y *518:10 42.7368 
2 *518:10 *518:16 42.2 
3 *518:16 *1498:B 40.1804 
4 *518:10 *1503:A 40 
*END

*D_NET *519 0.000811976
*CONN
*I *1505:A2 I *D sg13g2_o21ai_1
*I *1498:Y O *D sg13g2_nand2b_1
*CAP
1 *1505:A2 0.000328239
2 *1498:Y 0.000328239
3 *1505:A2 *1502:A0 0
4 *1505:A2 *1505:B1 8.03692e-05
5 *1495:A1 *1505:A2 7.51291e-05
6 *1505:A1 *1505:A2 0
7 *509:26 *1505:A2 0
*RES
1 *1498:Y *1505:A2 43.0624 
*END

*D_NET *520 0.00145218
*CONN
*I *1500:B1 I *D sg13g2_o21ai_1
*I *1499:Y O *D sg13g2_nand2b_1
*CAP
1 *1500:B1 0
2 *1499:Y 0.000450186
3 *520:10 0.000450186
4 *520:10 results[109] 0
5 *520:10 *526:8 0
6 *1500:A2 *520:10 0.000243088
7 *509:26 *520:10 0.000308722
*RES
1 *1499:Y *520:10 44.2944 
2 *520:10 *1500:B1 40 
*END

*D_NET *521 0.00140356
*CONN
*I *1502:A0 I *D sg13g2_mux2_1
*I *1500:Y O *D sg13g2_o21ai_1
*CAP
1 *1502:A0 0.000474722
2 *1500:Y 0.000474722
3 *1502:A0 *1504:B1 0
4 *1502:A0 *1505:B1 0
5 *1495:S *1502:A0 0
6 *1498:B *1502:A0 4.54596e-05
7 *1502:S *1502:A0 0
8 *1504:A1 *1502:A0 0
9 *1505:A2 *1502:A0 0
10 *511:17 *1502:A0 0.000234455
11 *511:38 *1502:A0 0.000128351
12 *514:31 *1502:A0 4.58509e-05
*RES
1 *1500:Y *1502:A0 44.5144 
*END

*D_NET *522 0.000650314
*CONN
*I *1502:A1 I *D sg13g2_mux2_1
*I *1501:Y O *D sg13g2_a221oi_1
*CAP
1 *1502:A1 0
2 *1501:Y 0.000325157
3 *522:8 0.000325157
4 *478:27 *522:8 0
5 *511:38 *522:8 0
6 *514:10 *522:8 0
*RES
1 *1501:Y *522:8 43.2296 
2 *522:8 *1502:A1 40 
*END

*D_NET *523 0.000574356
*CONN
*I *1504:B1 I *D sg13g2_a22oi_1
*I *1502:X O *D sg13g2_mux2_1
*CAP
1 *1504:B1 0.000239276
2 *1502:X 0.000239276
3 *1504:B1 *1504:B2 0
4 *1502:A0 *1504:B1 0
5 *1504:A1 *1504:B1 9.58045e-05
*RES
1 *1502:X *1504:B1 42.0812 
*END

*D_NET *524 0.000428469
*CONN
*I *1504:B2 I *D sg13g2_a22oi_1
*I *1503:Y O *D sg13g2_nor2b_1
*CAP
1 *1504:B2 0.000176536
2 *1503:Y 0.000176536
3 *1504:B2 *1505:B1 7.53965e-05
4 *1503:B_N *1504:B2 0
5 *1504:B1 *1504:B2 0
6 *517:29 *1504:B2 0
*RES
1 *1503:Y *1504:B2 41.4168 
*END

*D_NET *525 0.00145293
*CONN
*I *1505:B1 I *D sg13g2_o21ai_1
*I *1504:Y O *D sg13g2_a22oi_1
*CAP
1 *1505:B1 0.000531166
2 *1504:Y 0.000531166
3 *1498:B *1505:B1 0
4 *1502:A0 *1505:B1 0
5 *1504:B2 *1505:B1 7.53965e-05
6 *1505:A2 *1505:B1 8.03692e-05
7 *517:29 *1505:B1 0.000234832
*RES
1 *1504:Y *1505:B1 45.4032 
*END

*D_NET *526 0.00308572
*CONN
*I *1506:B1 I *D sg13g2_o21ai_1
*I *1505:Y O *D sg13g2_o21ai_1
*CAP
1 *1506:B1 0.000104418
2 *1505:Y 0.000605597
3 *526:8 0.000710015
4 *1506:B1 *976:42 0
5 *526:8 results[109] 0.00115761
6 *526:8 *534:75 0.00027463
7 *1486:B1 *526:8 0
8 *1911:D *1506:B1 0.000233457
9 *506:27 *526:8 0
10 *520:10 *526:8 0
*RES
1 *1505:Y *526:8 46.556 
2 *526:8 *1506:B1 41.144 
*END

*D_NET *527 0.0008983
*CONN
*I *1515:A0 I *D sg13g2_mux2_1
*I *1506:Y O *D sg13g2_o21ai_1
*CAP
1 *1515:A0 0.000158995
2 *1506:Y 0.000172948
3 *527:8 0.000331942
4 *1515:A0 *976:42 0.000234415
5 *527:8 *534:75 0
6 *499:10 *527:8 0
*RES
1 *1506:Y *527:8 41.5664 
2 *527:8 *1515:A0 41.6632 
*END

*D_NET *528 0.00174273
*CONN
*I *1513:A I *D sg13g2_nand4_1
*I *1687:A I *D sg13g2_nand2_1
*I *1507:Y O *D sg13g2_inv_1
*CAP
1 *1513:A 0.000351038
2 *1687:A 2.60365e-05
3 *1507:Y 0.00024306
4 *528:6 0.000620134
5 *1513:A *1513:B 0
6 *1513:A *1513:C 0
7 *1513:A *1513:D 0
8 *1513:A *1692:A2 0.000234266
9 *1513:A *534:12 0
10 *1687:A *1692:A2 0
11 *528:6 *1687:B 0.000128161
12 *528:6 *1913:CLK 0
13 *528:6 *984:128 0
14 *528:6 *989:10 0
15 *1694:C *1513:A 0
16 *1782:A *528:6 0.000140032
17 *167:14 *1513:A 0
18 *179:12 *1513:A 0
*RES
1 *1507:Y *528:6 22.3056 
2 *528:6 *1687:A 20.2728 
3 *528:6 *1513:A 23.3352 
*END

*D_NET *529 0.00282804
*CONN
*I *1513:B I *D sg13g2_nand4_1
*I *1694:A I *D sg13g2_nor3_1
*I *1691:B I *D sg13g2_nor3_1
*I *1508:Y O *D sg13g2_inv_1
*CAP
1 *1513:B 6.53448e-05
2 *1694:A 0.000434514
3 *1691:B 0.000283405
4 *1508:Y 0.000263117
5 *529:14 0.000848579
6 *529:10 0.000459122
7 *1513:B *1513:C 2.49862e-05
8 *1513:B *1513:D 4.8613e-05
9 *1513:B *1692:A2 0
10 *1691:B *1691:A 0
11 *1691:B *977:26 7.51684e-05
12 *1694:A *1694:B 0.000128351
13 *1694:A *1147:12 0.000181383
14 *529:10 *1677:A 0
15 *529:10 *700:31 0
16 *529:10 *701:10 0
17 *529:10 *977:59 0
18 *529:14 *700:31 0
19 *529:14 *977:59 0
20 *1513:A *1513:B 0
21 *1693:B *1691:B 0
22 *1694:C *1691:B 0
23 *1694:C *1694:A 0
24 *178:12 *1691:B 1.54556e-05
*RES
1 *1508:Y *529:10 42.1824 
2 *529:10 *529:14 21.1968 
3 *529:14 *1691:B 22.4728 
4 *529:14 *1694:A 24.2504 
5 *529:10 *1513:B 40.5588 
*END

*D_NET *530 0.00243559
*CONN
*I *1688:A I *D sg13g2_nor2_1
*I *1510:B I *D sg13g2_nor2_1
*I *1509:X O *D sg13g2_or2_1
*CAP
1 *1688:A 0.000258249
2 *1510:B 0.000369605
3 *1509:X 0.00022234
4 *530:8 0.000850194
5 *1510:B *1689:A 0
6 *1510:B *531:10 0
7 *1510:B *699:10 0
8 *1688:A *1032:35 0
9 *530:8 *1032:23 0
10 *1689:B *1510:B 0
11 *1690:A *1510:B 0.000553404
12 *1690:A *530:8 0
13 *1690:B *1510:B 0
14 *1905:D *530:8 0
15 *1913:D *530:8 0.000181799
16 *173:8 *1688:A 0
17 *176:8 *1510:B 0
18 *176:8 *1688:A 0
*RES
1 *1509:X *530:8 42.4112 
2 *530:8 *1510:B 43.6696 
3 *530:8 *1688:A 42.1208 
*END

*D_NET *531 0.00129052
*CONN
*I *1678:A1 I *D sg13g2_a21o_1
*I *1511:B I *D sg13g2_nand2_1
*I *1510:Y O *D sg13g2_nor2_1
*CAP
1 *1678:A1 0.000365879
2 *1511:B 0.000148711
3 *1510:Y 0.000119347
4 *531:10 0.000633937
5 *1511:B *979:66 0
6 *1678:A1 *1187:A 0
7 *1678:A1 *1511:A 0
8 *1678:A1 *979:8 0
9 *1678:A1 *1028:14 2.26492e-05
10 *531:10 *699:10 0
11 *531:10 *979:66 0
12 *1510:B *531:10 0
13 *1690:A *1511:B 0
14 *1690:A *531:10 0
15 *168:8 *1678:A1 0
16 *222:10 *1678:A1 0
*RES
1 *1510:Y *531:10 41.1792 
2 *531:10 *1511:B 41.3552 
3 *531:10 *1678:A1 43.5046 
*END

*D_NET *532 0.00534974
*CONN
*I *1692:A2 I *D sg13g2_a21oi_1
*I *1691:C I *D sg13g2_nor3_1
*I *1512:B I *D sg13g2_nor2_1
*I *1511:Y O *D sg13g2_nand2_1
*CAP
1 *1692:A2 0.000319932
2 *1691:C 0
3 *1512:B 0.000697358
4 *1511:Y 0.00047087
5 *532:27 0.000370513
6 *532:12 0.00121881
7 *1512:B *1512:A 0.000106442
8 *1512:B *1691:A 0
9 *1512:B *1748:A 0
10 *1512:B *533:10 0
11 *1512:B *700:6 0
12 *1512:B *700:14 0.000976767
13 *1512:B *977:8 0
14 *1512:B *986:10 0
15 *1692:A2 *1513:D 0
16 *1692:A2 *1748:A 0
17 *1692:A2 *1913:CLK 7.89572e-05
18 *1692:A2 *977:26 0
19 *532:12 *1511:A 0.000128618
20 *532:12 *1681:A 0
21 *532:12 *1681:B 0.000234455
22 *532:12 *1691:A 0.000197027
23 *532:12 *990:6 0
24 *532:12 *990:16 0
25 *532:27 *1748:A 0
26 *1513:B *1692:A2 0
27 *1513:A *1692:A2 0.000234266
28 *1687:A *1692:A2 0
29 *1690:A *532:12 0
30 *1693:A *532:12 7.53182e-05
31 *1694:C *1692:A2 0
32 *1906:D *532:12 0
33 *171:10 *532:12 0.000128161
34 *178:12 *1692:A2 0.000112248
35 *179:12 *1692:A2 0
*RES
1 *1511:Y *532:12 45.0952 
2 *532:12 *1512:B 47.8144 
3 *532:12 *532:27 0.4576 
4 *532:27 *1691:C 40 
5 *532:27 *1692:A2 42.9568 
*END

*D_NET *533 0.00330027
*CONN
*I *1513:D I *D sg13g2_nand4_1
*I *1694:B I *D sg13g2_nor3_1
*I *1512:Y O *D sg13g2_nor2_1
*CAP
1 *1513:D 0.000604184
2 *1694:B 0.000131604
3 *1512:Y 0.000213764
4 *533:10 0.000949551
5 *1513:D *1513:C 4.15789e-05
6 *1513:D *534:12 0
7 *1513:D *701:10 0
8 *1513:D *1147:12 0.000161961
9 *1694:B *1147:12 0
10 *533:10 *1512:A 0
11 *533:10 *1147:12 8.00835e-05
12 *1512:B *533:10 0
13 *1513:B *1513:D 4.8613e-05
14 *1513:A *1513:D 0
15 *1692:A2 *1513:D 0
16 *1694:A *1694:B 0.000128351
17 *1694:C *1513:D 0.000181611
18 *1694:C *1694:B 4.79124e-05
19 *1907:D *1513:D 0.000711061
20 *82:8 *1513:D 0
21 *82:8 *533:10 0
22 *175:6 *1513:D 0
*RES
1 *1512:Y *533:10 42.0768 
2 *533:10 *1694:B 41.2056 
3 *533:10 *1513:D 45.5704 
*END

*D_NET *534 0.00810602
*CONN
*I *1519:B I *D sg13g2_nand2_1
*I *1520:A1 I *D sg13g2_o21ai_1
*I *1515:S I *D sg13g2_mux2_1
*I *1518:S I *D sg13g2_mux2_1
*I *1517:A1 I *D sg13g2_o21ai_1
*I *1516:B I *D sg13g2_nand2_1
*I *1727:B1 I *D sg13g2_o21ai_1
*I *1513:Y O *D sg13g2_nand4_1
*CAP
1 *1519:B 2.64027e-05
2 *1520:A1 1.47717e-05
3 *1515:S 0
4 *1518:S 0
5 *1517:A1 0.000116522
6 *1516:B 0
7 *1727:B1 0.000700913
8 *1513:Y 0.000410981
9 *534:81 0.000182648
10 *534:75 0.000588351
11 *534:66 0.00128327
12 *534:53 0.00111519
13 *534:31 0.000116522
14 *534:29 0.000622197
15 *534:12 0.0015081
16 *1517:A1 *1516:A 4.80605e-05
17 *1517:A1 *1517:B1 9.90074e-05
18 *1519:B *1520:B1 7.51291e-05
19 *1727:B1 *1735:A 0
20 *1727:B1 *1922:CLK 0
21 *1727:B1 *701:10 0
22 *1727:B1 *984:120 0
23 *1727:B1 *984:122 0
24 *534:12 *701:10 0.000923318
25 *534:12 *984:122 0
26 *534:12 *984:128 0
27 *534:12 *984:152 0
28 *534:29 *984:152 0
29 *534:53 *1017:21 0
30 *534:66 results[109] 0
31 *534:66 *1517:B1 0
32 *534:66 *1518:A1 0
33 *534:66 *976:30 0
34 *534:66 *1149:8 0
35 *534:75 results[109] 0
36 *1486:B1 *534:75 0
37 *1506:A1 *1520:A1 0
38 *1513:A *534:12 0
39 *1513:D *534:12 0
40 *1727:A1 *1727:B1 0
41 *84:8 *534:29 0
42 *179:12 *534:12 0
43 *478:59 *534:66 0
44 *498:45 *534:29 0
45 *498:45 *534:53 0
46 *526:8 *534:75 0.00027463
47 *527:8 *534:75 0
*RES
1 *1513:Y *534:12 44.8312 
2 *534:12 *1727:B1 46.7936 
3 *534:12 *534:29 4.1536 
4 *534:29 *534:31 20 
5 *534:31 *1516:B 20 
6 *534:31 *1517:A1 21.3618 
7 *534:29 *534:53 22.0768 
8 *534:53 *1518:S 20 
9 *534:53 *534:66 27.4184 
10 *534:66 *1515:S 40 
11 *534:66 *534:75 3.4144 
12 *534:75 *534:81 41.7776 
13 *534:81 *1520:A1 40.1408 
14 *534:75 *1519:B 40.2992 
*END

*D_NET *536 0.000371114
*CONN
*I *1517:B1 I *D sg13g2_o21ai_1
*I *1516:Y O *D sg13g2_nand2_1
*CAP
1 *1517:B1 0.000136053
2 *1516:Y 0.000136053
3 *1517:B1 *1516:A 0
4 *1517:B1 *1518:A1 0
5 *1517:A1 *1517:B1 9.90074e-05
6 *1910:D *1517:B1 0
7 *498:45 *1517:B1 0
8 *534:66 *1517:B1 0
*RES
1 *1516:Y *1517:B1 41.3904 
*END

*D_NET *537 0.000490805
*CONN
*I *1520:B1 I *D sg13g2_o21ai_1
*I *1519:Y O *D sg13g2_nand2_1
*CAP
1 *1520:B1 0.000207838
2 *1519:Y 0.000207838
3 *1520:B1 *1519:A 0
4 *1506:A2 *1520:B1 0
5 *1519:B *1520:B1 7.51291e-05
6 *1911:D *1520:B1 0
*RES
1 *1519:Y *1520:B1 42.0504 
*END

*D_NET *538 0.000757261
*CONN
*I *1522:A2 I *D sg13g2_a21o_1
*I *1521:Y O *D sg13g2_nor3_1
*CAP
1 *1522:A2 1.76145e-05
2 *1521:Y 0.000336819
3 *538:8 0.000354434
4 *1522:A1 *1522:A2 4.83931e-05
5 *1522:B1 *538:8 0
6 *226:10 *538:8 0
7 *226:20 *538:8 0
*RES
1 *1521:Y *538:8 42.6752 
2 *538:8 *1522:A2 40.1936 
*END

*D_NET *539 0.00141784
*CONN
*I *1788:A I *D sg13g2_buf_2
*I *1564:C I *D sg13g2_nand3_1
*I *1522:X O *D sg13g2_a21o_1
*CAP
1 *1788:A 0
2 *1564:C 6.74559e-05
3 *1522:X 0.000159902
4 *539:25 0.000214814
5 *539:8 0.000442171
6 *539:8 *1860:CLK 0
7 *539:8 *660:18 3.86694e-05
8 *539:8 *984:31 0
9 *539:25 *660:10 3.37786e-05
10 *539:25 *660:18 0
11 *1522:B1 *539:8 7.47893e-05
12 *1564:B *1564:C 3.74279e-05
13 *1564:B *539:8 4.14315e-05
14 *1780:A *539:25 0.000307399
*RES
1 *1522:X *539:8 21.628 
2 *539:8 *1564:C 20.572 
3 *539:8 *539:25 41.8854 
4 *539:25 *1788:A 20 
*END

*D_NET *541 0.00158017
*CONN
*I *1527:B I *D sg13g2_xor2_1
*I *1526:A1 I *D sg13g2_a21oi_1
*I *1524:X O *D sg13g2_or2_1
*CAP
1 *1527:B 4.07404e-05
2 *1526:A1 0.000282045
3 *1524:X 0.000127545
4 *541:10 0.00045033
5 *1526:A1 *1527:A 0
6 *541:10 *649:32 0.000234683
7 *215:18 *1527:B 6.49365e-05
8 *215:18 *541:10 0.000145243
9 *228:8 *1527:B 0
10 *228:8 *541:10 0
11 *228:12 *1526:A1 0
12 *228:12 *541:10 0.000234643
*RES
1 *1524:X *541:10 41.76 
2 *541:10 *1526:A1 42.4112 
3 *541:10 *1527:B 40.4576 
*END

*D_NET *542 0.000732586
*CONN
*I *1526:A2 I *D sg13g2_a21oi_1
*I *1525:Y O *D sg13g2_a21oi_1
*CAP
1 *1526:A2 0
2 *1525:Y 0.00014846
3 *542:10 0.00014846
4 *542:10 *649:10 0.00021024
5 *542:10 *649:16 7.51688e-05
6 *1180:A1 *542:10 2.20968e-05
7 *215:18 *542:10 0
8 *228:12 *542:10 0.000128161
*RES
1 *1525:Y *542:10 41.7072 
2 *542:10 *1526:A2 40 
*END

*D_NET *543 0.000823748
*CONN
*I *1528:A2 I *D sg13g2_a21oi_1
*I *1527:X O *D sg13g2_xor2_1
*CAP
1 *1528:A2 0.000321069
2 *1527:X 0.000321069
3 *1528:A2 *1195:B 0
4 *1528:A2 *1527:A 0
5 *1528:A2 *1528:B1 0
6 *1528:A2 *985:24 0
7 *1528:A1 *1528:A2 0.000181611
*RES
1 *1527:X *1528:A2 43.1416 
*END

*D_NET *544 0.000540875
*CONN
*I *1530:A1 I *D sg13g2_mux2_1
*I *1529:Y O *D sg13g2_nor2_1
*CAP
1 *1530:A1 0
2 *1529:Y 0.000150383
3 *544:10 0.000150383
4 *544:10 *984:31 7.36615e-05
5 *544:10 *993:57 2.20968e-05
6 *230:12 *544:10 0.000144351
*RES
1 *1529:Y *544:10 41.3112 
2 *544:10 *1530:A1 40 
*END

*D_NET *545 0.000319252
*CONN
*I *1531:B I *D sg13g2_and2_1
*I *1530:X O *D sg13g2_mux2_1
*CAP
1 *1531:B 0.000122231
2 *1530:X 0.000122231
3 *1531:B *1860:CLK 0
4 *230:18 *1531:B 7.47893e-05
*RES
1 *1530:X *1531:B 41.1792 
*END

*D_NET *546 0.00285644
*CONN
*I *1533:A1 I *D sg13g2_mux2_1
*I *1532:Y O *D sg13g2_nor2b_1
*CAP
1 *1533:A1 4.80861e-05
2 *1532:Y 0.000835736
3 *546:10 0.000883822
4 *1533:A1 *1533:A0 0.000234415
5 *546:10 *1532:B_N 7.51688e-05
6 *546:10 *1536:A 0.000234832
7 *546:10 *548:10 0
8 *546:10 *1086:10 0
9 *1535:B *1533:A1 0.000128161
10 *28:10 *546:10 0
11 *227:12 *1533:A1 0.000128161
12 *227:20 *546:10 0
13 *230:28 *546:10 0.000288053
*RES
1 *1532:Y *546:10 46.3184 
2 *546:10 *1533:A1 40.9328 
*END

*D_NET *547 0.000812633
*CONN
*I *1534:B I *D sg13g2_and2_1
*I *1533:X O *D sg13g2_mux2_1
*CAP
1 *1534:B 0
2 *1533:X 0.000254264
3 *547:10 0.000254264
4 *547:10 *651:8 0.000128201
5 *547:10 *652:16 0
6 *1535:B *547:10 5.30323e-05
7 *227:12 *547:10 7.51291e-05
8 *227:20 *547:10 4.77421e-05
9 *231:12 *547:10 0
*RES
1 *1533:X *547:10 42.4464 
2 *547:10 *1534:B 40 
*END

*D_NET *548 0.00202866
*CONN
*I *1536:C I *D sg13g2_and3_1
*I *1535:Y O *D sg13g2_nand2b_1
*CAP
1 *1536:C 0
2 *1535:Y 0.000577558
3 *548:10 0.000577558
4 *548:10 *1536:A 0
5 *548:10 *652:16 0
6 *548:10 *653:16 7.51684e-05
7 *548:10 *653:25 0
8 *28:10 *548:10 0.000798373
9 *546:10 *548:10 0
*RES
1 *1535:Y *548:10 45.9312 
2 *548:10 *1536:C 40 
*END

*D_NET *555 0.000620676
*CONN
*I *1545:A1 I *D sg13g2_a21oi_1
*I *1543:Y O *D sg13g2_nand2_1
*CAP
1 *1545:A1 0.000272295
2 *1543:Y 0.000272295
3 *1545:A1 *1545:A2 0
4 *1545:A1 *1563:A 0
5 *1545:A1 *1828:A 4.79124e-05
6 *1545:A1 *1834:A 0
7 *1545:A1 *994:30 2.81734e-05
8 *1854:D *1545:A1 0
*RES
1 *1543:Y *1545:A1 42.5256 
*END

*D_NET *556 0.00167234
*CONN
*I *1545:A2 I *D sg13g2_a21oi_1
*I *1544:Y O *D sg13g2_nand3_1
*CAP
1 *1545:A2 0.000475998
2 *1544:Y 0.000475998
3 *1545:A2 *1544:B 2.21754e-05
4 *1545:A2 *1544:C 0.000234832
5 *1545:A2 *1563:A 0
6 *1545:A2 *1563:B 0.000127783
7 *1545:A2 *1566:A1 4.79124e-05
8 *1545:A2 *1854:CLK 0
9 *1545:A2 *994:20 0
10 *1545:A2 *1025:43 0.000287636
11 *1545:A1 *1545:A2 0
*RES
1 *1544:Y *1545:A2 44.6464 
*END

*D_NET *557 0.000301501
*CONN
*I *1548:A1 I *D sg13g2_a21oi_1
*I *1546:Y O *D sg13g2_nand2_1
*CAP
1 *1548:A1 0.000150751
2 *1546:Y 0.000150751
*RES
1 *1546:Y *1548:A1 41.4784 
*END

*D_NET *558 0.000322392
*CONN
*I *1548:A2 I *D sg13g2_a21oi_1
*I *1547:Y O *D sg13g2_nand3_1
*CAP
1 *1548:A2 0.000150148
2 *1547:Y 0.000150148
3 *1548:A2 *1546:B 0
4 *1548:A2 *1547:B 2.20968e-05
5 *1548:A2 *1855:CLK 0
*RES
1 *1547:Y *1548:A2 41.4784 
*END

*D_NET *559 0.000966037
*CONN
*I *1551:A1 I *D sg13g2_a21oi_1
*I *1549:Y O *D sg13g2_nand2_1
*CAP
1 *1551:A1 0.000143618
2 *1549:Y 0.000143618
3 *1551:A1 *1558:A1 0
4 *1551:A1 *994:55 0
5 *1551:A1 *1071:14 0.000390748
6 *35:10 *1551:A1 0.000288053
*RES
1 *1549:Y *1551:A1 42.112 
*END

*D_NET *560 0.00185436
*CONN
*I *1551:A2 I *D sg13g2_a21oi_1
*I *1550:Y O *D sg13g2_nand3_1
*CAP
1 *1551:A2 0.000398025
2 *1550:Y 0.000398025
3 *1551:A2 *1549:B 0.000197066
4 *1551:A2 *1550:B 0
5 *1551:A2 *1558:A2 0
6 *1551:A2 *1558:B1 0
7 *1551:A2 *994:55 0.000150377
8 *1551:A2 *1025:71 0.000710872
9 *37:10 *1551:A2 0
*RES
1 *1550:Y *1551:A2 44.796 
*END

*D_NET *561 0.000882868
*CONN
*I *1554:A1 I *D sg13g2_a21oi_1
*I *1552:Y O *D sg13g2_nand2_1
*CAP
1 *1554:A1 4.40626e-05
2 *1552:Y 0.000308609
3 *561:10 0.000352671
4 *561:10 *994:95 0
5 *561:10 *1029:76 0.000177525
6 *242:12 *561:10 0
*RES
1 *1552:Y *561:10 42.7896 
2 *561:10 *1554:A1 40.2992 
*END

*D_NET *562 0.000832207
*CONN
*I *1554:A2 I *D sg13g2_a21oi_1
*I *1553:Y O *D sg13g2_nand3_1
*CAP
1 *1554:A2 0
2 *1553:Y 0.000205767
3 *562:10 0.000205767
4 *562:10 *1553:A 0
5 *562:10 *1021:10 0.000210433
6 *562:10 *1029:76 0.00021024
7 *242:12 *562:10 0
*RES
1 *1553:Y *562:10 41.9184 
2 *562:10 *1554:A2 40 
*END

*D_NET *563 0.000406313
*CONN
*I *1558:A1 I *D sg13g2_a21oi_1
*I *1555:Y O *D sg13g2_nand2_1
*CAP
1 *1558:A1 0.000128181
2 *1555:Y 0.000128181
3 *1558:A1 *983:25 0
4 *1558:A1 *1071:14 2.16652e-05
5 *1551:A1 *1558:A1 0
6 *37:10 *1558:A1 0.000128285
*RES
1 *1555:Y *1558:A1 41.4784 
*END

*D_NET *565 0.00155504
*CONN
*I *1558:A2 I *D sg13g2_a21oi_1
*I *1557:Y O *D sg13g2_nand3_1
*CAP
1 *1558:A2 0.00018524
2 *1557:Y 0.000490636
3 *565:8 0.000675876
4 *1558:A2 *1550:B 2.20968e-05
5 *1558:A2 *1550:C 0.000181194
6 *1558:A2 *1558:B1 0
7 *1558:A2 *983:25 0
8 *565:8 *1557:B 0
9 *565:8 *656:12 0
10 *565:8 *760:13 0
11 *1551:A2 *1558:A2 0
*RES
1 *1557:Y *565:8 43.5992 
2 *565:8 *1558:A2 41.8392 
*END

*D_NET *566 0.000395595
*CONN
*I *1561:A1 I *D sg13g2_a21oi_1
*I *1559:Y O *D sg13g2_nand2_1
*CAP
1 *1561:A1 0.000197797
2 *1559:Y 0.000197797
3 *1561:A1 *1561:B1 0
4 *1561:A1 *658:23 0
*RES
1 *1559:Y *1561:A1 41.4784 
*END

*D_NET *567 0.000370784
*CONN
*I *1561:A2 I *D sg13g2_a21oi_1
*I *1560:Y O *D sg13g2_nand3_1
*CAP
1 *1561:A2 0.000166623
2 *1560:Y 0.000166623
3 *1561:A2 *1560:B 3.75373e-05
4 *1561:A2 *658:23 0
*RES
1 *1560:Y *1561:A2 41.4784 
*END

*D_NET *569 0.00143157
*CONN
*I *1566:A1 I *D sg13g2_a21oi_1
*I *1563:Y O *D sg13g2_nand2_1
*CAP
1 *1566:A1 0.000422072
2 *1563:Y 0.000422072
3 *1566:A1 *1544:B 0
4 *1566:A1 *1544:A 0.000198242
5 *1566:A1 *1566:A2 0
6 *1566:A1 *1854:CLK 0
7 *1566:A1 *994:14 0
8 *1566:A1 *994:20 0
9 *1566:A1 *1029:30 0.000341274
10 *1545:A2 *1566:A1 4.79124e-05
11 *1860:D *1566:A1 0
*RES
1 *1563:Y *1566:A1 44.0744 
*END

*D_NET *570 0.00281809
*CONN
*I *1566:A2 I *D sg13g2_a21oi_1
*I *1564:Y O *D sg13g2_nand3_1
*CAP
1 *1566:A2 0.000804502
2 *1564:Y 0.000804502
3 *1566:A2 *1742:A 0
4 *1566:A2 *1860:CLK 7.51291e-05
5 *1566:A2 *984:31 0
6 *1566:A2 *994:14 0
7 *1566:A2 *994:93 0
8 *1566:A2 *1029:20 0.000128201
9 *1566:A2 *1029:24 0.00031876
10 *1566:A2 *1029:30 0.000606624
11 *1566:A1 *1566:A2 0
12 *1860:D *1566:A2 8.03692e-05
*RES
1 *1564:Y *1566:A2 48.2808 
*END

*D_NET *572 0.00030582
*CONN
*I *1569:A1 I *D sg13g2_a21oi_1
*I *1567:Y O *D sg13g2_nand2_1
*CAP
1 *1569:A1 0.000119206
2 *1567:Y 0.000119206
3 *1569:A1 *1569:B1 6.74074e-05
4 *1569:A1 *656:23 0
5 *1569:A1 *658:23 0
*RES
1 *1567:Y *1569:A1 41.144 
*END

*D_NET *573 0.000350323
*CONN
*I *1569:A2 I *D sg13g2_a21oi_1
*I *1568:Y O *D sg13g2_nand3_1
*CAP
1 *1569:A2 0.000137577
2 *1568:Y 0.000137577
3 *1569:A2 *656:23 0
4 *1569:A2 *658:23 0
5 *1569:A2 *1029:82 0
6 *1569:A2 *1029:92 7.51684e-05
*RES
1 *1568:Y *1569:A2 41.1792 
*END

*D_NET *574 0.000584494
*CONN
*I *1571:A1 I *D sg13g2_o21ai_1
*I *1570:Y O *D sg13g2_inv_1
*CAP
1 *1571:A1 0.000193236
2 *1570:Y 0.000193236
3 *1571:A1 *1570:A 0.000101186
4 *1571:A1 *1571:A2 2.20472e-05
5 *1571:A1 *1862:CLK 0
6 *41:10 *1571:A1 7.47893e-05
*RES
1 *1570:Y *1571:A1 41.8744 
*END

*D_NET *575 0.0025823
*CONN
*I *1595:C I *D sg13g2_nand3_1
*I *1789:A I *D sg13g2_buf_2
*I *1598:C I *D sg13g2_nand3_1
*I *1572:X O *D sg13g2_or2_1
*CAP
1 *1595:C 0.000321237
2 *1789:A 8.27684e-05
3 *1598:C 0
4 *1572:X 0.000168759
5 *575:23 0.000622041
6 *575:8 0.000386794
7 *1595:C *1595:B 4.79124e-05
8 *1595:C *1598:A 0
9 *1595:C *1030:42 0
10 *1595:C *1114:10 0.000242298
11 *1789:A *1030:8 8.67693e-05
12 *1789:A *1114:10 8.00835e-05
13 *575:8 *1026:52 0
14 *575:8 *1030:14 0
15 *575:23 *1596:B1 0
16 *575:23 *984:179 0.000234604
17 *575:23 *1026:52 0
18 *575:23 *1030:8 0
19 *183:37 *1595:C 0.000309036
*RES
1 *1572:X *575:8 41.3816 
2 *575:8 *1598:C 40 
3 *575:8 *575:23 42.024 
4 *575:23 *1789:A 40.803 
5 *575:23 *1595:C 43.1328 
*END

*D_NET *577 0.00115775
*CONN
*I *1576:A1 I *D sg13g2_a21oi_1
*I *1577:B I *D sg13g2_xor2_1
*I *1574:X O *D sg13g2_or2_1
*CAP
1 *1576:A1 0
2 *1577:B 0.000129964
3 *1574:X 0.000189013
4 *577:12 0.000129964
5 *577:10 0.000189013
6 *1577:B *1576:B1 2.82737e-05
7 *1577:B *1579:A2 0.000128296
8 *1577:B *988:72 0
9 *1577:B *988:81 0.000106214
10 *577:10 *1580:B 0.000128618
11 *577:10 *578:8 0
12 *577:10 *666:35 0.00012839
13 *42:8 *577:10 0
*RES
1 *1574:X *577:10 41.892 
2 *577:10 *577:12 20 
3 *577:12 *1577:B 21.2496 
4 *577:12 *1576:A1 20 
*END

*D_NET *578 0.000636023
*CONN
*I *1576:A2 I *D sg13g2_a21oi_1
*I *1575:Y O *D sg13g2_a21oi_1
*CAP
1 *1576:A2 5.57445e-05
2 *1575:Y 0.000171481
3 *578:8 0.000227226
4 *1576:A2 *666:35 0
5 *1576:A2 *988:81 0.000181572
6 *578:8 *1575:B1 0
7 *577:10 *578:8 0
*RES
1 *1575:Y *578:8 41.3816 
2 *578:8 *1576:A2 40.7216 
*END

*D_NET *579 0.00116803
*CONN
*I *1579:A2 I *D sg13g2_a21oi_1
*I *1577:X O *D sg13g2_xor2_1
*CAP
1 *1579:A2 0.000198989
2 *1577:X 0.000198989
3 *1579:A2 *666:16 0.000181839
4 *1579:A2 *988:72 0.000420956
5 *1579:A2 *1022:14 3.89582e-05
6 *1577:B *1579:A2 0.000128296
*RES
1 *1577:X *1579:A2 42.8644 
*END

*D_NET *647 0.000270905
*CONN
*I *1843:RESET_B I *D sg13g2_dfrbp_1
*I *1730:L_HI O *D sg13g2_tiehi
*CAP
1 *1843:RESET_B 0.000135452
2 *1730:L_HI 0.000135452
*RES
1 *1730:L_HI *1843:RESET_B 21.3376 
*END

*D_NET *648 0.0145122
*CONN
*P clk I
*I *1743:A I *D sg13g2_buf_8
*CAP
1 clk 0.00326817
2 *1743:A 0
3 *648:13 0.00375029
4 *648:11 0.00375029
5 *648:9 0.00326817
6 *648:9 results[100] 0
7 *648:9 *915:10 0.000475265
8 *648:13 *1750:A 0
9 *648:13 *1809:A 0
10 *648:13 *1892:CLK 0
11 *648:13 *982:51 0
12 *648:13 *1050:21 0
13 *205:12 *648:13 0
14 *205:22 *648:13 0
*RES
1 clk *648:9 49.436 
2 *648:9 *648:11 20 
3 *648:11 *648:13 38.7376 
4 *648:13 *1743:A 20 
*END

*D_NET *649 0.00409112
*CONN
*I *1521:B I *D sg13g2_nor3_1
*I *1193:B I *D sg13g2_nor3_1
*I *1524:A I *D sg13g2_or2_1
*I *1525:A2 I *D sg13g2_a21oi_1
*I *1843:Q O *D sg13g2_dfrbp_1
*CAP
1 *1521:B 0.000173024
2 *1193:B 0.000160426
3 *1524:A 0
4 *1525:A2 0
5 *1843:Q 0.000334694
6 *649:32 0.000666697
7 *649:23 0.000414542
8 *649:16 0.000128417
9 *649:10 0.000381816
10 *1193:B *1176:A 0
11 *1193:B *1193:A 4.79124e-05
12 *1521:B *1193:A 0.000250287
13 *1521:B *1521:A 0
14 *649:10 *993:26 0.000276128
15 *649:10 *993:32 0
16 *649:32 *1176:A 0
17 *1180:A1 *649:16 2.21754e-05
18 *1193:C *1193:B 4.79124e-05
19 *1197:B *1521:B 0.000394346
20 *1197:B *649:32 0
21 *214:22 *649:16 1.54556e-05
22 *214:22 *649:23 0.000181839
23 *214:22 *649:32 0
24 *215:18 *649:10 0
25 *226:14 *1521:B 7.53572e-05
26 *228:12 *649:23 0
27 *228:12 *649:32 0
28 *541:10 *649:32 0.000234683
29 *542:10 *649:10 0.00021024
30 *542:10 *649:16 7.51688e-05
*RES
1 *1843:Q *649:10 43.1856 
2 *649:10 *649:16 20.572 
3 *649:16 *1525:A2 20 
4 *649:16 *649:23 0.9328 
5 *649:23 *1524:A 20 
6 *649:23 *649:32 2.8952 
7 *649:32 *1193:B 21.452 
8 *649:32 *1521:B 22.596 
*END

*D_NET *650 0.00251791
*CONN
*I *1527:A I *D sg13g2_xor2_1
*I *1521:A I *D sg13g2_nor3_1
*I *1193:A I *D sg13g2_nor3_1
*I *1844:Q O *D sg13g2_dfrbp_1
*CAP
1 *1527:A 0.000386843
2 *1521:A 4.81138e-05
3 *1193:A 0.00011154
4 *1844:Q 0.000360363
5 *650:14 0.000317335
6 *650:10 0.000904888
7 *1193:A *1176:A 0
8 *650:10 *985:24 0
9 *1193:B *1193:A 4.79124e-05
10 *1193:C *1193:A 0
11 *1193:C *1521:A 1.54556e-05
12 *1197:B *1527:A 0
13 *1521:B *1193:A 0.000250287
14 *1521:B *1521:A 0
15 *1526:A1 *1527:A 0
16 *1528:A2 *1527:A 0
17 *1534:A *650:14 0
18 *226:14 *1521:A 7.51688e-05
19 *228:8 *650:10 0
20 *228:8 *650:14 0
21 *228:12 *1527:A 0
*RES
1 *1844:Q *650:10 43.7928 
2 *650:10 *650:14 21.5664 
3 *650:14 *1193:A 21.2056 
4 *650:14 *1521:A 20.572 
5 *650:10 *1527:A 43.3176 
*END

*D_NET *651 0.00360088
*CONN
*I *1194:A I *D sg13g2_nor2b_1
*I *1529:A I *D sg13g2_nor2_1
*I *1530:A0 I *D sg13g2_mux2_1
*I *1521:C I *D sg13g2_nor3_1
*I *1845:Q O *D sg13g2_dfrbp_1
*CAP
1 *1194:A 6.4334e-05
2 *1529:A 4.03936e-05
3 *1530:A0 0.000277335
4 *1521:C 0.000102933
5 *1845:Q 0.000389042
6 *651:27 0.000471907
7 *651:12 0.000710942
8 *651:8 0.000907207
9 *1529:A *1853:CLK 1.54556e-05
10 *1529:A *993:57 2.48589e-05
11 *1530:A0 *1860:CLK 0
12 *1530:A0 *993:57 8.00835e-05
13 *651:8 *980:10 0
14 *651:12 *1853:CLK 0
15 *651:12 *980:10 0
16 *651:27 *993:57 0.000210566
17 *1194:B_N *1194:A 0
18 *1194:B_N *1521:C 7.51291e-05
19 *1194:B_N *651:12 0
20 *1197:B *1521:C 0
21 *1522:A1 *1530:A0 0
22 *1535:B *651:8 0
23 *226:14 *1521:C 2.20968e-05
24 *226:20 *1521:C 8.03968e-05
25 *226:20 *1530:A0 0
26 *226:20 *651:27 0
27 *227:12 *651:8 0
28 *230:12 *1530:A0 0
29 *547:10 *651:8 0.000128201
*RES
1 *1845:Q *651:8 23.4496 
2 *651:8 *651:12 23.6784 
3 *651:12 *1521:C 40.9416 
4 *651:12 *651:27 1.496 
5 *651:27 *1530:A0 42.0504 
6 *651:27 *1529:A 40.3718 
7 *651:8 *1194:A 20.6424 
*END

*D_NET *652 0.00478289
*CONN
*I *1532:A I *D sg13g2_nor2b_1
*I *1198:A I *D sg13g2_nor2_1
*I *1535:A_N I *D sg13g2_nand2b_1
*I *1533:A0 I *D sg13g2_mux2_1
*I *1846:Q O *D sg13g2_dfrbp_1
*CAP
1 *1532:A 0
2 *1198:A 0
3 *1535:A_N 4.67329e-05
4 *1533:A0 0.000196382
5 *1846:Q 0.000343995
6 *652:47 0.000742035
7 *652:16 0.000409172
8 *652:10 0.000512015
9 *652:6 0.00143199
10 *652:6 *653:8 0
11 *652:10 *653:16 0
12 *652:16 *653:16 0
13 *652:16 *653:25 0
14 *652:47 *1846:CLK 0
15 *652:47 *653:25 0
16 *652:47 *980:49 0
17 *652:47 *981:28 0
18 *652:47 *984:16 0
19 *652:47 *984:18 0
20 *652:47 *1086:10 0
21 *652:47 *1087:12 0.00079806
22 *1533:A1 *1533:A0 0.000234415
23 *1534:A *1533:A0 0
24 *1535:B *1533:A0 0
25 *1535:B *1535:A_N 6.18224e-06
26 *1846:D *652:10 0
27 *227:12 *1533:A0 6.19104e-05
28 *231:12 *1533:A0 0
29 *231:12 *1535:A_N 0
30 *547:10 *652:16 0
31 *548:10 *652:16 0
*RES
1 *1846:Q *652:6 23.6784 
2 *652:6 *652:10 3.2648 
3 *652:10 *652:16 41.3816 
4 *652:16 *1533:A0 22.0856 
5 *652:16 *1535:A_N 20.572 
6 *652:10 *1198:A 20 
7 *652:6 *652:47 46.9256 
8 *652:47 *1532:A 20 
*END

*D_NET *653 0.00457068
*CONN
*I *1532:B_N I *D sg13g2_nor2b_1
*I *1536:A I *D sg13g2_and3_1
*I *1198:B I *D sg13g2_nor2_1
*I *1847:Q O *D sg13g2_dfrbp_1
*CAP
1 *1532:B_N 2.76114e-05
2 *1536:A 0.000120552
3 *1198:B 0
4 *1847:Q 0.000560944
5 *653:25 0.000791019
6 *653:16 0.000260276
7 *653:8 0.00146408
8 *1532:B_N *1086:10 0
9 *653:8 *984:16 0
10 *653:16 *1086:10 0
11 *653:25 *1086:10 0.000961032
12 *1535:B *653:16 0
13 *1846:D *653:16 0
14 *28:10 *653:25 0
15 *546:10 *1532:B_N 7.51688e-05
16 *546:10 *1536:A 0.000234832
17 *548:10 *1536:A 0
18 *548:10 *653:16 7.51684e-05
19 *548:10 *653:25 0
20 *652:6 *653:8 0
21 *652:10 *653:16 0
22 *652:16 *653:16 0
23 *652:16 *653:25 0
24 *652:47 *653:25 0
*RES
1 *1847:Q *653:8 25.0072 
2 *653:8 *653:16 42.3672 
3 *653:16 *1198:B 20 
4 *653:8 *653:25 25.8168 
5 *653:25 *1536:A 41.3904 
6 *653:25 *1532:B_N 40.2992 
*END

*D_NET *654 0.00266595
*CONN
*I *1544:A I *D sg13g2_nand3_1
*I *1209:B I *D sg13g2_nor3_2
*I *1854:Q O *D sg13g2_dfrbp_1
*CAP
1 *1544:A 7.31257e-05
2 *1209:B 0.000327085
3 *1854:Q 0.000227106
4 *654:10 0.000627317
5 *1209:B *765:11 0.000601254
6 *1209:B *983:23 0.00034157
7 *1209:B *1021:65 0
8 *1544:A *1566:B1 2.81734e-05
9 *1544:A *994:20 0
10 *654:10 *1854:CLK 0
11 *654:10 *765:11 0.000242073
12 *654:10 *1029:30 0
13 *1566:A1 *1544:A 0.000198242
*RES
1 *1854:Q *654:10 42.1032 
2 *654:10 *1209:B 43.4144 
3 *654:10 *1544:A 40.7876 
*END

*D_NET *655 0.000727825
*CONN
*I *1209:A I *D sg13g2_nor3_2
*I *1547:A I *D sg13g2_nand3_1
*I *1855:Q O *D sg13g2_dfrbp_1
*CAP
1 *1209:A 0.000118068
2 *1547:A 1.35896e-05
3 *1855:Q 0.000148745
4 *655:6 0.000280403
5 *1209:A *1209:C 0.000128351
6 *1209:A *1855:CLK 0
7 *1547:A *1547:B 3.86694e-05
*RES
1 *1855:Q *655:6 21.3816 
2 *655:6 *1547:A 20.154 
3 *655:6 *1209:A 21.3552 
*END

*D_NET *656 0.0075057
*CONN
*I *1209:C I *D sg13g2_nor3_2
*I *1234:B_N I *D sg13g2_nor2b_1
*I *1237:A I *D sg13g2_nor2_1
*I *1224:A I *D sg13g2_nor4_1
*I *1217:A I *D sg13g2_or4_1
*I *1550:A I *D sg13g2_nand3_1
*I *1856:Q O *D sg13g2_dfrbp_1
*CAP
1 *1209:C 0.000584518
2 *1234:B_N 0
3 *1237:A 0
4 *1224:A 6.86467e-05
5 *1217:A 0.000271022
6 *1550:A 1.93186e-05
7 *1856:Q 0.000602483
8 *656:57 0.000253309
9 *656:49 0.000348343
10 *656:27 0.000485833
11 *656:23 0.00132396
12 *656:14 0.00110208
13 *656:12 0.001187
14 *1209:C *760:13 4.78029e-05
15 *1209:C *983:10 0
16 *1209:C *983:23 0
17 *1209:C *1021:67 0
18 *1217:A *1224:C 0
19 *1217:A *657:28 0
20 *1217:A *658:35 0
21 *1217:A *661:16 7.53965e-05
22 *1217:A *998:10 0
23 *1217:A *998:16 0
24 *1224:A *657:28 0
25 *1224:A *995:6 0
26 *656:12 *1557:B 4.15789e-05
27 *656:12 *1557:C 7.5293e-05
28 *656:12 *760:13 0.000634013
29 *656:23 *1553:A 0
30 *656:23 *1568:A 0
31 *656:23 *1754:A 0
32 *656:23 *658:23 0
33 *656:23 *760:13 7.51291e-05
34 *656:23 *983:51 0
35 *656:23 *1029:92 0
36 *656:23 *1072:10 0
37 *656:27 *657:18 0
38 *656:27 *998:10 0
39 *656:49 *1553:A 0
40 *656:49 *995:6 0
41 *656:57 *1553:A 0.000181611
42 *656:57 *657:12 0
43 *656:57 *998:10 0
44 *1209:A *1209:C 0.000128351
45 *1569:A1 *656:23 0
46 *1569:A2 *656:23 0
47 *242:12 *1209:C 0
48 *242:12 *656:57 0
49 *267:50 *656:57 0
50 *565:8 *656:12 0
*RES
1 *1856:Q *656:12 45.4384 
2 *656:12 *656:14 20 
3 *656:14 *1550:A 20.154 
4 *656:14 *656:23 10.2256 
5 *656:23 *656:27 21.5664 
6 *656:27 *1217:A 42.4464 
7 *656:27 *1224:A 40.5104 
8 *656:23 *656:49 0.9328 
9 *656:49 *656:57 42.6576 
10 *656:57 *1237:A 20 
11 *656:49 *1234:B_N 20 
12 *656:12 *1209:C 45.434 
*END

*D_NET *657 0.006508
*CONN
*I *1211:B1 I *D sg13g2_o21ai_1
*I *1237:B I *D sg13g2_nor2_1
*I *1553:A I *D sg13g2_nand3_1
*I *1234:A I *D sg13g2_nor2b_1
*I *1224:B I *D sg13g2_nor4_1
*I *1217:B I *D sg13g2_or4_1
*I *1857:Q O *D sg13g2_dfrbp_1
*CAP
1 *1211:B1 0.000259073
2 *1237:B 0
3 *1553:A 0.000732078
4 *1234:A 6.79189e-05
5 *1224:B 0
6 *1217:B 0
7 *1857:Q 0.000142493
8 *657:49 0.000732078
9 *657:28 0.000343808
10 *657:18 0.000686808
11 *657:12 0.00062556
12 *657:10 0.00046492
13 *657:6 0.000651845
14 *1234:A *995:25 0
15 *657:18 *1224:C 3.86694e-05
16 *657:18 *1239:B 0
17 *657:18 *661:97 0
18 *657:18 *661:107 0.000122871
19 *657:18 *995:14 0
20 *657:28 *1224:C 0.000210819
21 *657:28 *1754:A 0
22 *657:28 *658:35 0
23 *657:28 *661:16 0
24 *1211:A1 *1211:B1 0
25 *1211:A2 *1211:B1 4.8786e-05
26 *1212:B1 *1211:B1 7.51688e-05
27 *1217:A *657:28 0
28 *1224:A *657:28 0
29 *1224:D *657:18 0
30 *1233:A0 *1211:B1 2.21754e-05
31 *1233:A1 *1211:B1 0
32 *1233:S *1211:B1 0
33 *1238:B1 *1553:A 0
34 *9:6 *1211:B1 0.000106065
35 *9:6 *657:6 0.000500937
36 *9:12 *657:10 0
37 *242:12 *1553:A 0
38 *256:25 *657:12 4.77421e-05
39 *256:25 *657:18 0.00024328
40 *257:10 *657:18 7.51291e-05
41 *267:12 *1234:A 0
42 *267:50 *1553:A 0.000128161
43 *267:50 *657:12 0
44 *283:10 *657:12 0
45 *562:10 *1553:A 0
46 *656:23 *1553:A 0
47 *656:27 *657:18 0
48 *656:49 *1553:A 0
49 *656:57 *1553:A 0.000181611
50 *656:57 *657:12 0
*RES
1 *1857:Q *657:6 21.9888 
2 *657:6 *657:10 21.936 
3 *657:10 *657:12 1.936 
4 *657:12 *657:18 23.2912 
5 *657:18 *657:28 43.0096 
6 *657:28 *1217:B 20 
7 *657:18 *1224:B 20 
8 *657:12 *1234:A 40.5104 
9 *657:10 *657:49 20 
10 *657:49 *1553:A 27.546 
11 *657:49 *1237:B 20 
12 *657:6 *1211:B1 22.7456 
*END

*D_NET *658 0.00367711
*CONN
*I *1754:A I *D sg13g2_buf_1
*I *1217:C I *D sg13g2_or4_1
*I *1557:A I *D sg13g2_nand3_1
*I *1858:Q O *D sg13g2_dfrbp_1
*CAP
1 *1754:A 4.34458e-05
2 *1217:C 0
3 *1557:A 0.000457587
4 *1858:Q 0
5 *658:35 0.000211319
6 *658:23 0.00117861
7 *658:4 0.00138144
8 *1557:A *1557:B 0
9 *1557:A *983:25 0
10 *1557:A *983:51 0
11 *1557:A *1068:10 0
12 *658:23 *1560:B 0
13 *658:23 *1560:A 0
14 *658:23 *1561:B1 0
15 *658:23 *1568:A 0.000128389
16 *658:23 *983:51 0
17 *658:23 *1029:92 0
18 *658:23 *1068:10 0
19 *658:35 *661:16 0
20 *658:35 *998:10 0.000276321
21 *1217:A *658:35 0
22 *1561:A1 *658:23 0
23 *1561:A2 *658:23 0
24 *1569:A1 *658:23 0
25 *1569:A2 *658:23 0
26 *656:23 *1754:A 0
27 *656:23 *658:23 0
28 *657:28 *1754:A 0
29 *657:28 *658:35 0
*RES
1 *1858:Q *658:4 20 
2 *658:4 *1557:A 23.8544 
3 *658:4 *658:23 8.272 
4 *658:23 *658:35 42.178 
5 *658:35 *1217:C 20 
6 *658:23 *1754:A 20.5104 
*END

*D_NET *659 0.00136959
*CONN
*I *1204:B I *D sg13g2_nor2_1
*I *1756:A I *D sg13g2_buf_2
*I *1859:Q O *D sg13g2_dfrbp_1
*CAP
1 *1204:B 0.000336096
2 *1756:A 0.000167114
3 *1859:Q 2.63416e-05
4 *659:6 0.000529551
5 *1204:B *1204:A 0
6 *1204:B *1219:B1 0
7 *1204:B *1222:A2 0
8 *1204:B *1222:B1 0.000310489
9 *1204:B *999:8 0
10 *1204:B *999:47 0
11 *1756:A *1222:B1 0
12 *1756:A *998:16 0
*RES
1 *1859:Q *659:6 20.2728 
2 *659:6 *1756:A 21.4102 
3 *659:6 *1204:B 22.8424 
*END

*D_NET *660 0.00124355
*CONN
*I *1757:A I *D sg13g2_buf_1
*I *1564:A I *D sg13g2_nand3_1
*I *1860:Q O *D sg13g2_dfrbp_1
*CAP
1 *1757:A 0
2 *1564:A 0
3 *1860:Q 0.000190929
4 *660:18 0.000226385
5 *660:10 0.000417314
6 *660:10 *1860:CLK 0.000234604
7 *660:10 *1029:12 0.000101873
8 *1780:A *660:10 0
9 *539:8 *660:18 3.86694e-05
10 *539:25 *660:10 3.37786e-05
11 *539:25 *660:18 0
*RES
1 *1860:Q *660:10 22.2968 
2 *660:10 *660:18 41.9052 
3 *660:18 *1564:A 20 
4 *660:10 *1757:A 20 
*END

*D_NET *661 0.00988487
*CONN
*I *1568:A I *D sg13g2_nand3_1
*I *1239:A I *D sg13g2_or2_1
*I *1223:A I *D sg13g2_nor2_2
*I *1205:A1 I *D sg13g2_o21ai_1
*I *1221:A I *D sg13g2_inv_1
*I *1207:A1 I *D sg13g2_mux2_2
*I *1214:A1 I *D sg13g2_mux2_1
*I *1219:B1 I *D sg13g2_a21oi_1
*I *1861:Q O *D sg13g2_dfrbp_1
*CAP
1 *1568:A 0.000439544
2 *1239:A 0
3 *1223:A 0
4 *1205:A1 0
5 *1221:A 3.15565e-05
6 *1207:A1 0.000352387
7 *1214:A1 0.000295921
8 *1219:B1 0.000113784
9 *1861:Q 8.10125e-05
10 *661:107 0.000233039
11 *661:97 0.0004151
12 *661:88 0.000296042
13 *661:41 0.000708751
14 *661:39 0.000393815
15 *661:35 0.000820039
16 *661:20 0.000601689
17 *661:16 0.00085519
18 *661:8 0.000927963
19 *1207:A1 *1207:S 0
20 *1207:A1 *1247:A 0
21 *1207:A1 *997:46 0.00028702
22 *1207:A1 *999:20 0.000340003
23 *1214:A1 *1214:A0 0
24 *1214:A1 *1215:A 2.20968e-05
25 *1214:A1 *996:39 0.000210056
26 *1219:B1 *996:20 0
27 *1219:B1 *998:16 0
28 *1219:B1 *999:47 8.01443e-05
29 *1221:A *996:33 7.51291e-05
30 *1568:A *998:10 0
31 *1568:A *1029:92 9.18e-05
32 *661:8 *1560:A 0
33 *661:16 *1218:A 0
34 *661:16 *1560:A 0
35 *661:20 *996:10 0
36 *661:20 *996:16 0
37 *661:20 *996:20 0
38 *661:20 *998:16 0
39 *661:35 *999:47 0
40 *661:39 *996:20 0
41 *661:39 *996:24 0
42 *661:39 *996:39 4.75868e-05
43 *661:39 *999:58 7.80453e-05
44 *661:41 *996:39 0.000112059
45 *661:88 *999:58 7.80453e-05
46 *661:97 *1239:B 0
47 *661:97 *1252:A1 0
48 *661:97 *995:14 3.37786e-05
49 *661:97 *999:84 0
50 *661:107 *995:14 0
51 *661:107 *999:101 0
52 *1204:B *1219:B1 0
53 *1207:A0 *1207:A1 0
54 *1213:A *1214:A1 0
55 *1216:A1 *1214:A1 0
56 *1217:A *661:16 7.53965e-05
57 *1218:B *661:16 0
58 *1220:A1 *661:16 1.54556e-05
59 *1220:A2 *661:16 0
60 *1224:D *661:107 3.75524e-05
61 *1249:A2 *1207:A1 0
62 *1252:A2 *661:97 0
63 *1254:B1 *661:107 0
64 *1255:B *661:107 0
65 *12:6 *661:16 0
66 *12:16 *661:35 0.000553176
67 *12:16 *661:88 0.000128161
68 *14:8 *1219:B1 8.12667e-05
69 *249:8 *661:88 0
70 *252:8 *1219:B1 4.80554e-05
71 *252:8 *661:20 0.000195122
72 *254:10 *661:39 0
73 *254:25 *661:39 0
74 *255:8 *661:39 0
75 *257:10 *661:97 0
76 *257:10 *661:107 0.000243667
77 *258:14 *661:88 0
78 *263:10 *661:88 0.000234161
79 *281:10 *1207:A1 0
80 *656:23 *1568:A 0
81 *657:18 *661:97 0
82 *657:18 *661:107 0.000122871
83 *657:28 *661:16 0
84 *658:23 *1568:A 0.000128389
85 *658:35 *661:16 0
*RES
1 *1861:Q *661:8 40.8272 
2 *661:8 *661:16 23.6168 
3 *661:16 *661:20 22.4904 
4 *661:20 *1219:B1 41.1506 
5 *661:20 *661:35 22.2 
6 *661:35 *661:39 22.3056 
7 *661:39 *661:41 0.6424 
8 *661:41 *1214:A1 42.7104 
9 *661:41 *1207:A1 43.8984 
10 *661:39 *1221:A 40.2992 
11 *661:35 *661:88 42.7588 
12 *661:88 *1205:A1 20 
13 *661:16 *661:97 1.628 
14 *661:97 *661:107 42.3232 
15 *661:107 *1223:A 20 
16 *661:97 *1239:A 20 
17 *661:8 *1568:A 44.5716 
*END

*D_NET *662 0.00185582
*CONN
*I *1168:A2 I *D sg13g2_a21o_1
*I *1177:B I *D sg13g2_nand2_1
*I *1195:B I *D sg13g2_and2_1
*I *1852:Q O *D sg13g2_dfrbp_1
*CAP
1 *1168:A2 9.31894e-05
2 *1177:B 0
3 *1195:B 0.000452383
4 *1852:Q 0.000114035
5 *662:12 0.000499225
6 *662:10 0.000254067
7 *1168:A2 *1810:A 0.00031453
8 *1168:A2 *993:10 0
9 *1195:B *985:24 0
10 *662:10 *1810:A 0
11 *662:10 *993:10 0.00012839
12 *1528:A2 *1195:B 0
13 *205:22 *662:10 0
14 *205:22 *662:12 0
15 *215:14 *1195:B 0
*RES
1 *1852:Q *662:10 41.3376 
2 *662:10 *662:12 0.4576 
3 *662:12 *1195:B 43.7136 
4 *662:12 *1177:B 40 
5 *662:10 *1168:A2 41.2496 
*END

*D_NET *663 0.000979182
*CONN
*I *1176:A I *D sg13g2_inv_1
*I *1853:Q O *D sg13g2_dfrbp_1
*CAP
1 *1176:A 0.000470815
2 *1853:Q 0.000470815
3 *1176:A *1853:CLK 2.20968e-05
4 *1176:A *1853:RESET_B 0
5 *1193:A *1176:A 0
6 *1193:B *1176:A 0
7 *1193:C *1176:A 1.54556e-05
8 *226:14 *1176:A 0
9 *649:32 *1176:A 0
*RES
1 *1853:Q *1176:A 44.1536 
*END

*D_NET *664 0.00709143
*CONN
*I *1728:B I *D sg13g2_or4_1
*I *1570:A I *D sg13g2_inv_1
*I *1862:Q O *D sg13g2_dfrbp_1
*CAP
1 *1728:B 0
2 *1570:A 0.000330097
3 *1862:Q 0.000569852
4 *664:32 0.00148303
5 *664:26 0.00190992
6 *664:8 0.000473057
7 *1570:A *1571:A2 0.00113112
8 *664:26 *1646:A 0
9 *664:26 *974:5 0
10 *664:26 *974:15 0
11 *664:26 *984:66 0
12 *664:32 *1627:A 0
13 *664:32 *1628:A1 0
14 *664:32 *1675:B1 0.000571833
15 *664:32 *1728:D 0.000310335
16 *664:32 *1792:A 0
17 *664:32 *681:8 0
18 *664:32 *974:56 0
19 *1571:A1 *1570:A 0.000101186
20 *1648:A1 *664:26 0
21 *1786:A *664:32 0
22 *131:27 *664:32 0
23 *165:10 *664:32 0.000211
*RES
1 *1862:Q *664:8 41.1968 
2 *664:8 *1570:A 44.5232 
3 *1862:Q *664:26 44.1008 
4 *664:26 *664:32 34.6828 
5 *664:32 *1728:B 20 
*END

*D_NET *665 0.00111676
*CONN
*I *1574:A I *D sg13g2_or2_1
*I *1349:B I *D sg13g2_or2_1
*I *1575:A1 I *D sg13g2_a21oi_1
*I *1863:Q O *D sg13g2_dfrbp_1
*CAP
1 *1574:A 0.000163271
2 *1349:B 0.000148627
3 *1575:A1 0
4 *1863:Q 0.000129155
5 *665:8 0.000441054
6 *1349:B *1580:B 2.20968e-05
7 *1349:B *666:35 2.99315e-05
8 *1574:A *1575:B1 0.000134716
9 *1574:A *1580:B 0
10 *1575:A2 *1349:B 4.79124e-05
11 *1575:A2 *1574:A 0
12 *378:20 *1349:B 0
13 *378:20 *665:8 0
*RES
1 *1863:Q *665:8 21.3376 
2 *665:8 *1575:A1 20 
3 *665:8 *1349:B 21.7952 
4 *665:8 *1574:A 21.9008 
*END

*D_NET *666 0.00223295
*CONN
*I *1349:A I *D sg13g2_or2_1
*I *1577:A I *D sg13g2_xor2_1
*I *1864:Q O *D sg13g2_dfrbp_1
*CAP
1 *1349:A 0
2 *1577:A 0
3 *1864:Q 0
4 *666:35 0.000478915
5 *666:16 0.00032742
6 *666:4 0.000806335
7 *666:16 *1030:14 0
8 *666:35 *1580:B 2.20968e-05
9 *666:35 *1030:14 0
10 *1349:B *666:35 2.99315e-05
11 *1575:A2 *666:35 0.000112485
12 *1576:A2 *666:35 0
13 *1579:A2 *666:16 0.000181839
14 *20:33 *666:35 0
15 *42:8 *666:16 0.000145541
16 *577:10 *666:35 0.00012839
*RES
1 *1864:Q *666:4 20 
2 *666:4 *666:16 43.124 
3 *666:16 *1577:A 20 
4 *666:4 *666:35 44.1096 
5 *666:35 *1349:A 20 
*END

*D_NET *667 0.00164901
*CONN
*I *1584:A I *D sg13g2_nor3_1
*I *1350:A I *D sg13g2_nor4_2
*I *1581:A I *D sg13g2_xor2_1
*I *1865:Q O *D sg13g2_dfrbp_1
*CAP
1 *1584:A 0
2 *1350:A 0.000167101
3 *1581:A 0
4 *1865:Q 0.000141446
5 *667:24 0.000162154
6 *667:16 0.000498352
7 *667:10 0.000169097
8 *667:8 0.000141446
9 *667:8 *669:33 0
10 *1581:B *667:24 0.000181611
11 *1582:B *667:24 0
12 *1584:B *667:16 7.51291e-05
13 *20:10 *1350:A 0
14 *378:20 *667:8 0.000112679
15 *378:20 *667:16 0
16 *378:20 *667:24 0
17 *382:10 *667:16 0
18 *382:10 *667:24 0
19 *382:18 *1350:A 0
20 *382:18 *667:8 0
21 *382:55 *667:24 0
*RES
1 *1865:Q *667:8 41.1968 
2 *667:8 *667:10 20 
3 *667:10 *667:16 21.6016 
4 *667:16 *667:24 41.8128 
5 *667:24 *1581:A 40 
6 *667:16 *1350:A 41.5664 
7 *667:10 *1584:A 20 
*END

*D_NET *668 0.00492613
*CONN
*I *1583:A I *D sg13g2_nor2b_1
*I *1587:A_N I *D sg13g2_nand2b_1
*I *1585:A0 I *D sg13g2_mux2_1
*I *1350:B I *D sg13g2_nor4_2
*I *1866:Q O *D sg13g2_dfrbp_1
*CAP
1 *1583:A 0
2 *1587:A_N 0.000409839
3 *1585:A0 0
4 *1350:B 0
5 *1866:Q 0.000560174
6 *668:38 0.000790341
7 *668:24 0.00048487
8 *668:14 0.000599151
9 *668:12 0.00105496
10 *1587:A_N *669:44 0
11 *668:12 *669:14 0
12 *668:14 *669:14 0
13 *668:14 *669:16 0
14 *668:24 *669:33 0.000339354
15 *668:24 *1106:12 0
16 *668:38 *669:44 0
17 *668:38 *1106:12 0
18 *1586:A *668:24 0.000393264
19 *1588:C *1587:A_N 0
20 *1866:CLK *668:12 7.51688e-05
21 *1866:D *668:12 7.51688e-05
22 *1866:D *668:14 0.000128389
23 *20:33 *668:24 0
24 *98:10 *1587:A_N 0
25 *98:10 *668:38 0
26 *99:8 *668:12 0
27 *100:10 *668:12 0
28 *100:10 *668:24 0
29 *186:21 *668:24 0
30 *379:12 *668:24 1.54556e-05
*RES
1 *1866:Q *668:12 26.0016 
2 *668:12 *668:14 1.144 
3 *668:14 *668:24 45.1744 
4 *668:24 *1350:B 20 
5 *668:14 *1585:A0 20 
6 *668:12 *668:38 23.4144 
7 *668:38 *1587:A_N 43.4496 
8 *668:38 *1583:A 40 
*END

*D_NET *669 0.00407476
*CONN
*I *1583:B_N I *D sg13g2_nor2b_1
*I *1350:C I *D sg13g2_nor4_2
*I *1588:A I *D sg13g2_and3_1
*I *1867:Q O *D sg13g2_dfrbp_1
*CAP
1 *1583:B_N 0
2 *1350:C 0
3 *1588:A 5.69315e-05
4 *1867:Q 0.000541391
5 *669:44 0.000241578
6 *669:33 0.000493262
7 *669:16 0.000681514
8 *669:14 0.000914289
9 *669:14 *1106:12 0
10 *1350:D *669:33 0
11 *1587:A_N *669:44 0
12 *1588:C *1588:A 0
13 *1867:CLK *669:14 0.000286971
14 *1867:D *669:16 0
15 *98:10 *669:14 0
16 *98:10 *669:44 0.000308969
17 *99:8 *1588:A 0
18 *99:23 *669:33 0.000210497
19 *99:23 *669:44 0
20 *667:8 *669:33 0
21 *668:12 *669:14 0
22 *668:14 *669:14 0
23 *668:14 *669:16 0
24 *668:24 *669:33 0.000339354
25 *668:38 *669:44 0
*RES
1 *1867:Q *669:14 25.8256 
2 *669:14 *669:16 1.144 
3 *669:16 *1588:A 20.5104 
4 *669:16 *669:33 44.8576 
5 *669:33 *1350:C 20 
6 *669:14 *669:44 42.3056 
7 *669:44 *1583:B_N 20 
*END

*D_NET *670 0.0013757
*CONN
*I *1310:B I *D sg13g2_nor3_1
*I *1595:A I *D sg13g2_nand3_1
*I *1874:Q O *D sg13g2_dfrbp_1
*CAP
1 *1310:B 2.63852e-05
2 *1595:A 0.00022999
3 *1874:Q 0.000284693
4 *670:12 0.000256375
5 *670:10 0.000284693
6 *1310:B *1310:A 0
7 *1595:A *1310:A 7.35205e-05
8 *1595:A *1595:B 0.000197865
9 *54:10 *670:10 0
10 *108:10 *670:10 0
11 *113:10 *1310:B 0
12 *113:10 *1595:A 0
13 *183:22 *1595:A 0
14 *183:22 *670:10 2.21754e-05
15 *339:10 *670:10 0
*RES
1 *1874:Q *670:10 41.6984 
2 *670:10 *670:12 20 
3 *670:12 *1595:A 22.5036 
4 *670:12 *1310:B 20.4048 
*END

*D_NET *671 0.00415451
*CONN
*I *1310:A I *D sg13g2_nor3_1
*I *1598:A I *D sg13g2_nand3_1
*I *1875:Q O *D sg13g2_dfrbp_1
*CAP
1 *1310:A 0.000591726
2 *1598:A 0.000205641
3 *1875:Q 0.000172034
4 *671:8 0.000969401
5 *1310:A *1595:B 0
6 *1310:A *984:179 0.000390912
7 *1310:A *984:192 8.07102e-05
8 *1598:A *984:179 0.000269543
9 *671:8 *1596:B1 0.00065347
10 *671:8 *1597:B 0
11 *671:8 *1067:10 0
12 *1310:B *1310:A 0
13 *1595:C *1598:A 0
14 *1595:A *1310:A 7.35205e-05
15 *1874:D *671:8 0.000341046
16 *113:10 *1310:A 0
17 *183:37 *1310:A 0.000406506
*RES
1 *1875:Q *671:8 42.6224 
2 *671:8 *1598:A 41.7732 
3 *671:8 *1310:A 45.61 
*END

*D_NET *672 0.00348244
*CONN
*I *1282:A I *D sg13g2_nor2_2
*I *1309:B_N I *D sg13g2_nor2b_1
*I *1601:A I *D sg13g2_nand3_1
*I *1310:C I *D sg13g2_nor3_1
*I *1876:Q O *D sg13g2_dfrbp_1
*CAP
1 *1282:A 0
2 *1309:B_N 0.000258874
3 *1601:A 4.47484e-05
4 *1310:C 0.000348761
5 *1876:Q 0.000292132
6 *672:30 0.000508628
7 *672:21 0.000294503
8 *672:10 0.000640893
9 *1309:B_N *1282:B 0
10 *1309:B_N *1605:A 2.21754e-05
11 *1309:B_N *984:192 0
12 *1310:C *1022:42 0
13 *1310:C *1022:57 0
14 *1601:A *1605:B 0
15 *1601:A *1000:6 0.000145021
16 *672:10 *1000:6 0
17 *672:10 *1022:76 0
18 *672:30 *1605:B 0
19 *672:30 *1605:A 0
20 *672:30 *1000:6 0.000926705
21 *1312:S *1309:B_N 0
22 *113:10 *1310:C 0
23 *338:8 *1309:B_N 0
*RES
1 *1876:Q *672:10 42.9744 
2 *672:10 *1310:C 43.4144 
3 *672:10 *672:21 20 
4 *672:21 *1601:A 20.5764 
5 *672:21 *672:30 3.6784 
6 *672:30 *1309:B_N 22.5344 
7 *672:30 *1282:A 20 
*END

*D_NET *673 0.00315017
*CONN
*I *1309:A I *D sg13g2_nor2b_1
*I *1312:A1 I *D sg13g2_mux2_1
*I *1282:B I *D sg13g2_nor2_2
*I *1605:A I *D sg13g2_nand3_1
*I *1877:Q O *D sg13g2_dfrbp_1
*CAP
1 *1309:A 0
2 *1312:A1 0.000120577
3 *1282:B 9.13532e-05
4 *1605:A 0.000230836
5 *1877:Q 0.000348317
6 *673:25 0.000427107
7 *673:10 0.000794329
8 *1282:B *1000:25 0.000181233
9 *1312:A1 *1000:25 0.000394495
10 *1605:A *984:192 0.000464575
11 *673:10 *984:192 0
12 *1309:B_N *1282:B 0
13 *1309:B_N *1605:A 2.21754e-05
14 *1312:A0 *1312:A1 7.51688e-05
15 *1312:A0 *673:10 0
16 *1312:A0 *673:25 0
17 *1312:S *1282:B 0
18 *1312:S *1312:A1 0
19 *1313:B *673:10 0
20 *183:12 *673:10 0
21 *311:8 *673:25 0
22 *338:8 *1312:A1 0
23 *339:14 *673:10 0
24 *672:30 *1605:A 0
*RES
1 *1877:Q *673:10 42.7632 
2 *673:10 *1605:A 42.9876 
3 *673:10 *673:25 22.1208 
4 *673:25 *1282:B 20.9944 
5 *673:25 *1312:A1 21.5664 
6 *673:10 *1309:A 40 
*END

*D_NET *674 0.000379263
*CONN
*I *1759:A I *D sg13g2_buf_2
*I *1878:Q O *D sg13g2_dfrbp_1
*CAP
1 *1759:A 0.000189631
2 *1878:Q 0.000189631
3 *1759:A *1607:B 0
4 *380:16 *1759:A 0
*RES
1 *1878:Q *1759:A 41.7028 
*END

*D_NET *675 0.000258215
*CONN
*I *1762:A I *D sg13g2_buf_1
*I *1879:Q O *D sg13g2_dfrbp_1
*CAP
1 *1762:A 0.000129107
2 *1879:Q 0.000129107
3 *1762:A *1003:18 0
4 *1762:A *1004:25 0
*RES
1 *1879:Q *1762:A 41.2056 
*END

*D_NET *676 0.00212251
*CONN
*I *1764:A I *D sg13g2_buf_2
*I *1616:A I *D sg13g2_nand3_1
*I *1880:Q O *D sg13g2_dfrbp_1
*CAP
1 *1764:A 0.000410858
2 *1616:A 7.62503e-06
3 *1880:Q 0.000591148
4 *676:10 0.000187915
5 *1616:A *1611:C 3.86694e-05
6 *1764:A *799:13 0.000606397
7 *1764:A *800:11 0
8 *1764:A *1005:8 0
9 *676:10 *1616:B 0
10 *676:10 *1619:C 0.00017834
11 *676:10 *792:19 0
12 *676:10 *1030:91 1.53506e-05
13 *676:10 *1030:102 4.75868e-05
14 *1613:A2 *1616:A 3.86198e-05
*RES
1 *1880:Q *676:10 41.496 
2 *676:10 *1616:A 40.154 
3 *1880:Q *1764:A 43.8148 
*END

*D_NET *677 0.000178967
*CONN
*I *1767:A I *D sg13g2_buf_1
*I *1881:Q O *D sg13g2_dfrbp_1
*CAP
1 *1767:A 8.94837e-05
2 *1881:Q 8.94837e-05
3 *21:8 *1767:A 0
*RES
1 *1881:Q *1767:A 40.7832 
*END

*D_NET *678 0.00368846
*CONN
*I *1351:B I *D sg13g2_and2_1
*I *1183:B I *D sg13g2_nand2_1
*I *1192:A2 I *D sg13g2_a21o_1
*I *1872:Q O *D sg13g2_dfrbp_1
*CAP
1 *1351:B 0.000237618
2 *1183:B 0
3 *1192:A2 0.000649687
4 *1872:Q 0.00114676
5 *678:22 0.000734696
6 *1192:A2 *1112:10 0
7 *1351:B *1351:A 0
8 *1351:B *984:118 0.00034157
9 *1351:B *984:120 7.51291e-05
10 *678:22 *1351:A 0
11 *678:22 *984:118 0.000502995
12 *678:22 *985:86 0
13 *678:22 *988:38 0
14 *1872:CLK *1192:A2 0
15 *1872:CLK *678:22 0
16 *1872:D *1192:A2 0
*RES
1 *1872:Q *1192:A2 45.4736 
2 *1872:Q *678:22 44.2152 
3 *678:22 *1183:B 40 
4 *678:22 *1351:B 42.2352 
*END

*D_NET *679 0.000871538
*CONN
*I *1182:A I *D sg13g2_inv_1
*I *1354:A I *D sg13g2_nand3_1
*I *1873:Q O *D sg13g2_dfrbp_1
*CAP
1 *1182:A 0.000213418
2 *1354:A 9.28678e-05
3 *1873:Q 0.000105288
4 *679:8 0.000411573
5 *1182:A *1873:RESET_B 0
6 *1354:B *1182:A 0
7 *1873:CLK *1182:A 0
8 *20:10 *1354:A 0
9 *218:10 *1182:A 4.83915e-05
10 *218:10 *679:8 0
11 *379:14 *1182:A 0
12 *383:10 *1354:A 0
13 *383:10 *679:8 0
*RES
1 *1873:Q *679:8 41.012 
2 *679:8 *1354:A 40.8228 
3 *679:8 *1182:A 42.024 
*END

*D_NET *680 0.00143186
*CONN
*I *1623:B1 I *D sg13g2_a21oi_1
*I *1728:A I *D sg13g2_or4_1
*I *1882:Q O *D sg13g2_dfrbp_1
*CAP
1 *1623:B1 0.000356748
2 *1728:A 0.000294987
3 *1882:Q 0
4 *680:6 0.000651735
5 *1623:B1 *988:38 0.00012839
6 *1623:B1 *988:44 0
7 *1623:B1 *988:59 0
8 *1728:A *1792:A 0
9 *1728:A *988:44 0
10 *1623:A1 *1623:B1 0
11 *1882:D *1728:A 0
12 *198:8 *1623:B1 0
13 *198:8 *1728:A 0
14 *219:10 *1623:B1 0
*RES
1 *1882:Q *680:6 40 
2 *680:6 *1728:A 42.585 
3 *680:6 *1623:B1 43.1284 
*END

*D_NET *681 0.00208127
*CONN
*I *1628:A1 I *D sg13g2_a21oi_1
*I *1437:A I *D sg13g2_or2_1
*I *1627:A I *D sg13g2_or2_1
*I *1883:Q O *D sg13g2_dfrbp_1
*CAP
1 *1628:A1 0.000258849
2 *1437:A 3.64461e-05
3 *1627:A 0.000363444
4 *1883:Q 0
5 *681:8 0.000653434
6 *681:6 0.000512393
7 *1437:A *991:71 0
8 *1627:A *991:79 0
9 *681:8 *991:79 0
10 *1627:B *1627:A 0
11 *1628:A2 *1628:A1 0.000128351
12 *1676:B *1628:A1 0
13 *131:10 *1437:A 0
14 *165:10 *1628:A1 0.000128351
15 *209:27 *1627:A 0
16 *464:25 *1628:A1 0
17 *464:27 *1628:A1 0
18 *464:27 *681:8 0
19 *664:32 *1627:A 0
20 *664:32 *1628:A1 0
21 *664:32 *681:8 0
*RES
1 *1883:Q *681:6 40 
2 *681:6 *681:8 2.1208 
3 *681:8 *1627:A 42.6576 
4 *681:8 *1437:A 40.2992 
5 *681:6 *1628:A1 42.4992 
*END

*D_NET *682 0.000859564
*CONN
*I *1630:A I *D sg13g2_xor2_1
*I *1437:B I *D sg13g2_or2_1
*I *1884:Q O *D sg13g2_dfrbp_1
*CAP
1 *1630:A 0
2 *1437:B 0.000332826
3 *1884:Q 8.58676e-05
4 *682:8 0.000418694
5 *1437:B *991:71 0
6 *682:8 *991:71 0
7 *1631:A2 *1437:B 0
8 *1631:A2 *682:8 0
9 *1883:D *682:8 0
10 *1884:D *1437:B 0
11 *1884:D *682:8 0
12 *1893:D *1437:B 0
13 *131:10 *1437:B 0
14 *131:27 *1437:B 0
15 *131:27 *682:8 2.21754e-05
*RES
1 *1884:Q *682:8 20.968 
2 *682:8 *1437:B 22.816 
3 *682:8 *1630:A 20 
*END

*D_NET *683 0.00315965
*CONN
*I *1633:A I *D sg13g2_xor2_1
*I *1636:A I *D sg13g2_nor3_1
*I *1438:A I *D sg13g2_nor4_2
*I *1885:Q O *D sg13g2_dfrbp_1
*CAP
1 *1633:A 0.000297043
2 *1636:A 2.68996e-05
3 *1438:A 0
4 *1885:Q 0.000368105
5 *683:21 0.000540689
6 *683:12 0.000216746
7 *683:10 0.000368105
8 *683:10 *1438:B 0
9 *683:10 *1639:A_N 0
10 *683:10 *684:37 0
11 *683:21 *1438:B 0
12 *1438:D *683:21 0
13 *1442:C *683:10 0.000275875
14 *1633:B *1633:A 0.000371044
15 *1634:B *1633:A 0.000181839
16 *1636:B *1633:A 0.000288281
17 *1636:B *1636:A 4.79124e-05
18 *1636:B *683:21 0
19 *1636:C *683:21 0
20 *1640:C *683:10 0
21 *137:10 *683:21 0
22 *462:16 *683:21 0
23 *466:12 *1633:A 0
24 *466:25 *683:10 0.000177108
*RES
1 *1885:Q *683:10 43.5552 
2 *683:10 *683:12 20 
3 *683:12 *1438:A 20 
4 *683:12 *683:21 1.8392 
5 *683:21 *1636:A 20.2728 
6 *683:21 *1633:A 23.916 
*END

*D_NET *684 0.0037621
*CONN
*I *1637:A0 I *D sg13g2_mux2_1
*I *1639:A_N I *D sg13g2_nand2b_1
*I *1438:B I *D sg13g2_nor4_2
*I *1635:A I *D sg13g2_nor2b_1
*I *1886:Q O *D sg13g2_dfrbp_1
*CAP
1 *1637:A0 0
2 *1639:A_N 0.00011549
3 *1438:B 0.000289954
4 *1635:A 0
5 *1886:Q 0.000430133
6 *684:37 0.000705812
7 *684:29 0.000652574
8 *684:10 0.00078234
9 *1438:B *685:30 0
10 *684:10 *685:10 0
11 *684:29 *1635:B_N 0.00012839
12 *684:29 *1865:CLK 0
13 *684:37 *685:18 0
14 *1438:D *1438:B 0
15 *1637:A1 *684:29 0.000128618
16 *1638:B *684:29 0.00012824
17 *1638:B *684:37 0
18 *1640:C *1639:A_N 0.000128389
19 *1886:D *684:10 0
20 *137:10 *1639:A_N 6.18224e-06
21 *137:20 *1639:A_N 0.000243877
22 *137:20 *684:29 0
23 *137:20 *684:37 0
24 *466:44 *1438:B 0
25 *466:61 *684:37 2.20968e-05
26 *683:10 *1438:B 0
27 *683:10 *1639:A_N 0
28 *683:10 *684:37 0
29 *683:21 *1438:B 0
*RES
1 *1886:Q *684:10 24.5408 
2 *684:10 *1635:A 20 
3 *684:10 *684:29 43.7664 
4 *684:29 *684:37 22.6136 
5 *684:37 *1438:B 42.508 
6 *684:37 *1639:A_N 41.4168 
7 *684:29 *1637:A0 20 
*END

*D_NET *685 0.00358698
*CONN
*I *1635:B_N I *D sg13g2_nor2b_1
*I *1640:A I *D sg13g2_and3_1
*I *1438:C I *D sg13g2_nor4_2
*I *1887:Q O *D sg13g2_dfrbp_1
*CAP
1 *1635:B_N 0.000131183
2 *1640:A 0
3 *1438:C 0
4 *1887:Q 0.000646693
5 *685:30 0.000351115
6 *685:18 0.0006161
7 *685:10 0.00104286
8 *1635:B_N *1865:CLK 0
9 *685:10 *972:45 0
10 *685:10 *1033:16 0
11 *685:10 *1126:12 0.000211252
12 *685:30 *972:45 0
13 *1438:B *685:30 0
14 *1438:D *685:30 3.71439e-05
15 *1637:A1 *1635:B_N 0.00012839
16 *1637:A1 *685:18 0
17 *1640:C *685:18 0
18 *1886:D *685:18 0.000181422
19 *1887:D *685:30 0
20 *137:20 *685:30 0
21 *466:44 *685:30 0
22 *466:61 *685:18 0
23 *466:61 *685:30 0.000112425
24 *684:10 *685:10 0
25 *684:29 *1635:B_N 0.00012839
26 *684:37 *685:18 0
*RES
1 *1887:Q *685:10 45.6144 
2 *685:10 *685:18 22.5608 
3 *685:18 *685:30 43.2626 
4 *685:30 *1438:C 20 
5 *685:18 *1640:A 20 
6 *685:10 *1635:B_N 41.5224 
*END

*D_NET *686 0.00116845
*CONN
*I *1419:B I *D sg13g2_nor3_2
*I *1647:A I *D sg13g2_nand3_1
*I *1894:Q O *D sg13g2_dfrbp_1
*CAP
1 *1419:B 0.000274626
2 *1647:A 0
3 *1894:Q 0.000112217
4 *686:14 8.72871e-05
5 *686:6 0.00047413
6 *1419:B *1419:A 0
7 *686:6 *1419:A 0
8 *686:14 *1419:A 3.8807e-05
9 *686:14 *975:10 0
10 *686:14 *1020:12 0
11 *686:14 *1020:18 0
12 *1648:A2 *686:6 0.000181383
13 *444:8 *1419:B 0
*RES
1 *1894:Q *686:6 21.144 
2 *686:6 *686:14 40.6116 
3 *686:14 *1647:A 20 
4 *686:6 *1419:B 22.4464 
*END

*D_NET *687 0.0018383
*CONN
*I *1419:A I *D sg13g2_nor3_2
*I *1650:A I *D sg13g2_nand3_1
*I *1895:Q O *D sg13g2_dfrbp_1
*CAP
1 *1419:A 0.000446251
2 *1650:A 0.000291504
3 *1895:Q 0.000737755
4 *1419:A *1655:B1 0.000226681
5 *1419:A *1896:CLK 0
6 *1419:A *992:101 0
7 *1650:A *1650:B 0
8 *1650:A *1655:B1 0
9 *1650:A *992:82 7.51684e-05
10 *1419:B *1419:A 0
11 *1651:A2 *1650:A 0
12 *1655:A1 *1419:A 0
13 *1896:D *1419:A 2.21365e-05
14 *686:6 *1419:A 0
15 *686:14 *1419:A 3.8807e-05
*RES
1 *1895:Q *1650:A 42.6752 
2 *1895:Q *1419:A 44.4176 
*END

*D_NET *688 0.00394525
*CONN
*I *1394:A I *D sg13g2_nor2_1
*I *1422:A1 I *D sg13g2_o21ai_1
*I *1403:B I *D sg13g2_nand2b_1
*I *1392:A I *D sg13g2_or3_1
*I *1419:C I *D sg13g2_nor3_2
*I *1653:A I *D sg13g2_nand3_1
*I *1896:Q O *D sg13g2_dfrbp_1
*CAP
1 *1394:A 0
2 *1422:A1 0.000144852
3 *1403:B 0
4 *1392:A 0
5 *1419:C 0.000266718
6 *1653:A 0.000289839
7 *1896:Q 0
8 *688:62 0.000160639
9 *688:55 0.000212908
10 *688:47 0.00029977
11 *688:40 0.000288352
12 *688:8 0.00082764
13 *688:4 0.000488359
14 *1419:C *975:10 0
15 *1419:C *975:16 0
16 *1419:C *1136:8 0
17 *1422:A1 *1394:B 0
18 *1422:A1 *1422:A2 0
19 *1422:A1 *689:36 0
20 *1653:A *1896:CLK 0
21 *1653:A *975:16 0
22 *688:40 *1392:B 5.03819e-05
23 *688:40 *1010:14 0.000181611
24 *688:40 *1010:29 0
25 *688:47 *1392:B 0.000181799
26 *688:47 *689:36 5.30323e-05
27 *688:55 *689:23 0.000242611
28 *688:62 *689:36 7.51291e-05
29 *1404:A *688:55 0
30 *1424:A *1422:A1 0
31 *410:16 *1422:A1 0.000181611
32 *417:10 *688:47 0
*RES
1 *1896:Q *688:4 20 
2 *688:4 *688:8 22.8336 
3 *688:8 *1653:A 43.014 
4 *688:8 *1419:C 42.574 
5 *688:4 *688:40 2.508 
6 *688:40 *1392:A 20 
7 *688:40 *688:47 0.9328 
8 *688:47 *688:55 41.7446 
9 *688:55 *1403:B 20 
10 *688:47 *688:62 0.2992 
11 *688:62 *1422:A1 21.5796 
12 *688:62 *1394:A 20 
*END

*D_NET *689 0.00584294
*CONN
*I *1658:A I *D sg13g2_nand3_1
*I *1431:A I *D sg13g2_inv_1
*I *1421:A0 I *D sg13g2_mux2_1
*I *1422:A2 I *D sg13g2_o21ai_1
*I *1394:B I *D sg13g2_nor2_1
*I *1392:B I *D sg13g2_or3_1
*I *1403:A_N I *D sg13g2_nand2b_1
*I *1897:Q O *D sg13g2_dfrbp_1
*CAP
1 *1658:A 0.000541061
2 *1431:A 9.81764e-05
3 *1421:A0 0
4 *1422:A2 0.000148449
5 *1394:B 1.98433e-05
6 *1392:B 0.000126516
7 *1403:A_N 0
8 *1897:Q 0.000129518
9 *689:79 0.000670579
10 *689:58 0.000262855
11 *689:36 0.000289812
12 *689:23 0.000403625
13 *689:10 0.000508375
14 *689:4 0.000517464
15 *1392:B *1010:29 0
16 *1422:A2 *1422:B1 0
17 *1431:A *973:42 0.000341085
18 *1658:A *1656:A 0
19 *1658:A *973:42 0
20 *1658:A *984:77 0.00062401
21 *1658:A *984:94 0
22 *689:10 *831:25 0
23 *689:58 *831:25 0
24 *689:58 *973:42 0.000128389
25 *1404:A *689:10 0
26 *1421:A1 *689:58 1.52019e-05
27 *1422:A1 *1394:B 0
28 *1422:A1 *1422:A2 0
29 *1422:A1 *689:36 0
30 *1434:A *1431:A 0
31 *19:10 *1658:A 0
32 *19:25 *689:58 0.000233457
33 *410:16 *1422:A2 0
34 *417:30 *1392:B 0
35 *417:30 *1422:A2 0
36 *417:30 *689:36 0
37 *426:46 *1431:A 0.000181572
38 *688:40 *1392:B 5.03819e-05
39 *688:47 *1392:B 0.000181799
40 *688:47 *689:36 5.30323e-05
41 *688:55 *689:23 0.000242611
42 *688:62 *689:36 7.51291e-05
*RES
1 *1897:Q *689:4 20 
2 *689:4 *689:10 23.344 
3 *689:10 *1403:A_N 40 
4 *689:10 *689:23 21.6808 
5 *689:23 *1392:B 21.3442 
6 *689:23 *689:36 0.9328 
7 *689:36 *1394:B 20.2728 
8 *689:36 *1422:A2 21.2056 
9 *689:4 *689:58 1.9008 
10 *689:58 *1421:A0 20 
11 *689:58 *1431:A 21.3552 
12 *1897:Q *689:79 41.3816 
13 *689:79 *1658:A 45.6452 
*END

*D_NET *690 0.00377415
*CONN
*I *1770:A I *D sg13g2_buf_2
*I *1769:A I *D sg13g2_buf_2
*I *1661:A I *D sg13g2_nand3_1
*I *1898:Q O *D sg13g2_dfrbp_1
*CAP
1 *1770:A 9.56512e-05
2 *1769:A 0
3 *1661:A 0.000200434
4 *1898:Q 0.000122387
5 *690:33 0.000787499
6 *690:10 0.00101467
7 *1661:A *830:15 0.000143039
8 *1661:A *975:16 0
9 *1661:A *992:33 0
10 *1661:A *1020:20 0
11 *1661:A *1031:32 0
12 *1770:A *1670:A 0
13 *1770:A *1011:6 0
14 *1770:A *1013:25 0.000287637
15 *690:10 *830:15 0
16 *690:10 *975:54 7.53965e-05
17 *690:10 *992:33 0
18 *690:33 *1668:B 0
19 *690:33 *1668:A 0
20 *690:33 *1670:A 0
21 *690:33 *992:33 0
22 *690:33 *1010:10 0.000101779
23 *690:33 *1013:25 0.000831825
24 *690:33 *1031:32 7.51688e-05
25 *1669:A2 *1661:A 3.86694e-05
*RES
1 *1898:Q *690:10 41.1264 
2 *690:10 *1661:A 41.8568 
3 *690:10 *690:33 26.8046 
4 *690:33 *1769:A 20 
5 *690:33 *1770:A 21.144 
*END

*D_NET *691 0.00100687
*CONN
*I *1414:C I *D sg13g2_or4_1
*I *1771:A I *D sg13g2_buf_2
*I *1899:Q O *D sg13g2_dfrbp_1
*CAP
1 *1414:C 0.000145176
2 *1771:A 0
3 *1899:Q 0.000331716
4 *691:8 0.000476892
5 *1414:C *1414:B 0
6 *1414:C *1012:57 0
7 *691:8 *1899:RESET_B 0
8 *691:8 *1012:8 0
9 *691:8 *1012:14 0
10 *691:8 *1012:57 0
11 *1414:D *1414:C 5.30866e-05
12 *13:10 *1414:C 0
13 *13:10 *691:8 0
14 *13:23 *1414:C 0
15 *17:8 *691:8 0
*RES
1 *1899:Q *691:8 22.7038 
2 *691:8 *1771:A 20 
3 *691:8 *1414:C 21.5026 
*END

*D_NET *692 0.000463999
*CONN
*I *1772:A I *D sg13g2_buf_1
*I *1900:Q O *D sg13g2_dfrbp_1
*CAP
1 *1772:A 0.000224272
2 *1900:Q 0.000224272
3 *1772:A *1667:A 0
4 *1772:A *834:19 1.54556e-05
*RES
1 *1900:Q *1772:A 42.0856 
*END

*D_NET *693 0.0131546
*CONN
*I *1671:A I *D sg13g2_nand3_1
*I *1405:A1 I *D sg13g2_a21oi_1
*I *1368:A I *D sg13g2_and2_2
*I *1389:A1 I *D sg13g2_mux2_1
*I *1383:A I *D sg13g2_or2_2
*I *1376:A1 I *D sg13g2_mux2_1
*I *1381:A I *D sg13g2_inv_1
*I *1371:A I *D sg13g2_or2_1
*I *1901:Q O *D sg13g2_dfrbp_1
*CAP
1 *1671:A 0.000806445
2 *1405:A1 0.000618584
3 *1368:A 2.52799e-05
4 *1389:A1 0.000302851
5 *1383:A 5.20948e-05
6 *1376:A1 0
7 *1381:A 4.31656e-05
8 *1371:A 0
9 *1901:Q 0
10 *693:66 0.000482456
11 *693:62 0.00133795
12 *693:49 0.000993738
13 *693:38 0.000384704
14 *693:23 0.000743649
15 *693:19 0.000727875
16 *693:12 0.000478068
17 *693:6 0.00124902
18 *1381:A *1377:A 0
19 *1381:A *1380:A 0
20 *1389:A1 *1365:B 0
21 *1389:A1 *1013:25 0
22 *1405:A1 *1365:B 0.000593829
23 *1405:A1 *1405:A2 0
24 *1405:A1 *1010:50 0
25 *1671:A *1664:B 4.15789e-05
26 *1671:A *1664:C 7.53965e-05
27 *1671:A *1664:A 0.00062401
28 *1671:A *1670:A 0.00103277
29 *1671:A *1671:B 0
30 *1671:A *835:19 0
31 *1671:A *1012:14 0
32 *693:23 *1370:B 0
33 *693:23 *1397:B1 0
34 *693:23 *1397:A1 0
35 *693:23 *1011:41 0
36 *693:38 *1380:A 0
37 *693:38 *1011:84 0
38 *693:49 *1011:41 0.000274601
39 *693:49 *1012:57 0
40 *693:49 *1014:14 0
41 *693:66 *1365:B 0
42 *693:66 *1365:A 0
43 *693:66 *1368:B 0.000128201
44 *693:66 *1013:25 0
45 *1372:A1 *693:23 0.000127783
46 *1372:A2 *693:23 1.54556e-05
47 *1372:A2 *693:49 4.79124e-05
48 *1374:S *1405:A1 0
49 *1386:A_N *693:66 7.51291e-05
50 *1401:A *1405:A1 0
51 *1405:B1 *1405:A1 0
52 *1406:B *1405:A1 0
53 *1409:B *693:49 0.000274601
54 *13:10 *693:12 0
55 *13:23 *693:12 0
56 *13:34 *693:23 0
57 *13:46 *693:38 0
58 *17:8 *1383:A 0.000127783
59 *17:20 *1405:A1 0
60 *390:10 *1405:A1 0
61 *393:10 *693:66 7.53575e-05
62 *395:10 *693:23 0
63 *397:8 *693:23 0
64 *397:14 *693:62 0
65 *405:8 *693:38 0.000372707
66 *406:32 *693:62 0
67 *408:10 *1383:A 0
68 *408:10 *693:62 0.000177793
69 *408:70 *693:62 0.000666726
70 *408:85 *1405:A1 0.000129366
71 *408:85 *693:62 4.77421e-05
72 *412:10 *693:62 0
73 *413:10 *693:62 0
74 *422:10 *693:38 0
75 *426:6 *1405:A1 0
76 *434:10 *693:49 0
77 *434:10 *693:62 0
78 *439:8 *693:49 0
*RES
1 *1901:Q *693:6 40 
2 *693:6 *693:12 24.532 
3 *693:12 *1371:A 20 
4 *693:12 *693:19 0.2992 
5 *693:19 *693:23 2.8688 
6 *693:23 *1381:A 20.4576 
7 *693:23 *693:38 43.4496 
8 *693:38 *1376:A1 20 
9 *693:19 *693:49 23.5024 
10 *693:49 *1383:A 40.5104 
11 *693:49 *693:62 5.7464 
12 *693:62 *693:66 21.5664 
13 *693:66 *1389:A1 22.8336 
14 *693:66 *1368:A 20.2728 
15 *693:62 *1405:A1 45.7816 
16 *693:6 *1671:A 49.5436 
*END

*D_NET *694 0.00370551
*CONN
*I *1439:B I *D sg13g2_and2_1
*I *1170:B I *D sg13g2_nand2_1
*I *1181:A2 I *D sg13g2_a21o_1
*I *1892:Q O *D sg13g2_dfrbp_1
*CAP
1 *1439:B 8.30658e-05
2 *1170:B 0.000253941
3 *1181:A2 0.000611519
4 *1892:Q 0
5 *694:21 0.000528429
6 *694:4 0.000802941
7 *1170:B *1170:A 0
8 *1170:B *1884:CLK 4.78023e-05
9 *1170:B *1892:CLK 0.000275621
10 *1170:B *974:27 0.000288053
11 *1181:A2 *1439:A 0
12 *1181:A2 *1810:A 0
13 *1181:A2 *1892:CLK 0
14 *1181:A2 *991:20 0
15 *1181:A2 *1051:8 0
16 *1439:B *1439:A 0.000250288
17 *1439:B *991:20 0.000335965
18 *1439:B *1051:8 0
19 *694:21 *1892:CLK 0.000227879
20 *694:21 *985:86 0
21 *1884:D *1170:B 0
*RES
1 *1892:Q *694:4 20 
2 *694:4 *1181:A2 25.0292 
3 *694:4 *694:21 21.892 
4 *694:21 *1170:B 42.8952 
5 *694:21 *1439:B 41.4168 
*END

*D_NET *695 0.00204028
*CONN
*I *1442:A I *D sg13g2_nand3_1
*I *1169:A I *D sg13g2_inv_1
*I *1893:Q O *D sg13g2_dfrbp_1
*CAP
1 *1442:A 0.000301558
2 *1169:A 0.000333977
3 *1893:Q 0.000635535
4 *1169:A *1893:RESET_B 0
5 *1442:A *972:9 0.000447904
6 *1442:A *1033:16 0
7 *1175:A1 *1169:A 0
8 *1442:C *1442:A 2.37541e-05
9 *10:10 *1169:A 0.00023398
10 *463:46 *1442:A 4.14315e-05
11 *467:12 *1442:A 2.21365e-05
*RES
1 *1893:Q *1169:A 43.2472 
2 *1893:Q *1442:A 43.322 
*END

*D_NET *696 0.00252538
*CONN
*I *1728:D I *D sg13g2_or4_1
*I *1675:B1 I *D sg13g2_a21oi_1
*I *1902:Q O *D sg13g2_dfrbp_1
*CAP
1 *1728:D 0.000296239
2 *1675:B1 0.0003835
3 *1902:Q 0.000100701
4 *696:8 0.00078044
5 *1728:D *712:29 1.53099e-05
6 *696:8 *1792:A 0
7 *1676:B *1675:B1 6.70179e-05
8 *664:32 *1675:B1 0.000571833
9 *664:32 *1728:D 0.000310335
*RES
1 *1902:Q *696:8 40.9328 
2 *696:8 *1675:B1 44.0084 
3 *696:8 *1728:D 42.904 
*END

*D_NET *697 0.00184367
*CONN
*I *1683:A2 I *D sg13g2_a21oi_1
*I *1680:A I *D sg13g2_or2_1
*I *1509:A I *D sg13g2_or2_1
*I *1903:Q O *D sg13g2_dfrbp_1
*CAP
1 *1683:A2 0.000268387
2 *1680:A 0
3 *1509:A 0.000185473
4 *1903:Q 0
5 *697:23 0.000428511
6 *697:6 0.000345596
7 *1509:A *1509:B 4.73996e-05
8 *1509:A *1680:B 0
9 *1683:A2 *1680:B 0
10 *1683:A2 *1686:A1 0
11 *1683:A2 *1688:B 0
12 *1683:A2 *1028:24 8.12057e-05
13 *1683:A2 *1032:23 0
14 *697:23 *1509:B 0.000230282
15 *697:23 *1680:B 0
16 *697:23 *1032:12 0
17 *1683:A1 *1683:A2 7.53575e-05
18 *1685:B *1683:A2 0
19 *1686:A2 *1683:A2 0
20 *170:10 *1683:A2 0.000181462
21 *173:8 *697:23 0
*RES
1 *1903:Q *697:6 40 
2 *697:6 *1509:A 41.5752 
3 *697:6 *697:23 21.6808 
4 *697:23 *1680:A 20 
5 *697:23 *1683:A2 22.7456 
*END

*D_NET *698 0.00168963
*CONN
*I *1685:A I *D sg13g2_xor2_1
*I *1509:B I *D sg13g2_or2_1
*I *1904:Q O *D sg13g2_dfrbp_1
*CAP
1 *1685:A 0.000249199
2 *1509:B 0.000322062
3 *1904:Q 3.34468e-05
4 *698:8 0.000604708
5 *1509:B *1680:B 0
6 *1685:A *1686:A1 7.50649e-05
7 *1685:A *1686:B1 0
8 *1509:A *1509:B 4.73996e-05
9 *1686:A2 *1685:A 0.000127471
10 *1686:A2 *698:8 0
11 *697:23 *1509:B 0.000230282
*RES
1 *1904:Q *698:8 40.2992 
2 *698:8 *1509:B 42.9744 
3 *698:8 *1685:A 42.464 
*END

*D_NET *699 0.000803205
*CONN
*I *1510:A I *D sg13g2_nor2_1
*I *1689:A I *D sg13g2_xnor2_1
*I *1905:Q O *D sg13g2_dfrbp_1
*CAP
1 *1510:A 0
2 *1689:A 0.000141813
3 *1905:Q 0.000195501
4 *699:12 0.000141813
5 *699:10 0.000195501
6 *1689:A *979:66 0
7 *699:10 *979:8 0
8 *699:10 *979:66 0
9 *1510:B *1689:A 0
10 *1510:B *699:10 0
11 *1690:B *1689:A 0.000128578
12 *531:10 *699:10 0
*RES
1 *1905:Q *699:10 41.6808 
2 *699:10 *699:12 20 
3 *699:12 *1689:A 21.144 
4 *699:12 *1510:A 20 
*END

*D_NET *700 0.00432421
*CONN
*I *1512:A I *D sg13g2_nor2_1
*I *1677:A I *D sg13g2_nor2_1
*I *1692:A1 I *D sg13g2_a21oi_1
*I *1691:A I *D sg13g2_nor3_1
*I *1906:Q O *D sg13g2_dfrbp_1
*CAP
1 *1512:A 3.44391e-05
2 *1677:A 0.000258114
3 *1692:A1 0
4 *1691:A 0.000188936
5 *1906:Q 4.27705e-05
6 *700:31 0.000442648
7 *700:14 0.000902452
8 *700:6 0.000606191
9 *1512:A *1147:12 0
10 *1677:A *1920:CLK 0
11 *1677:A *977:26 9.70851e-05
12 *1677:A *984:128 0.000181422
13 *1677:A *1160:8 8.03372e-05
14 *1691:A *977:26 0
15 *700:14 *977:8 0
16 *700:14 *1146:10 0
17 *700:31 *977:26 0.000209582
18 *1512:B *1512:A 0.000106442
19 *1512:B *1691:A 0
20 *1512:B *700:6 0
21 *1512:B *700:14 0.000976767
22 *1691:B *1691:A 0
23 *1693:B *1691:A 0
24 *167:14 *1677:A 0
25 *175:10 *1691:A 0
26 *178:12 *1691:A 0
27 *529:10 *1677:A 0
28 *529:10 *700:31 0
29 *529:14 *700:31 0
30 *532:12 *1691:A 0.000197027
31 *533:10 *1512:A 0
*RES
1 *1906:Q *700:6 20.4576 
2 *700:6 *700:14 26.204 
3 *700:14 *1691:A 41.8568 
4 *700:14 *700:31 1.6984 
5 *700:31 *1692:A1 40 
6 *700:31 *1677:A 41.9184 
7 *700:6 *1512:A 20.5104 
*END

*D_NET *701 0.00264265
*CONN
*I *1508:A I *D sg13g2_inv_1
*I *1677:B I *D sg13g2_nor2_1
*I *1907:Q O *D sg13g2_dfrbp_1
*CAP
1 *1508:A 0
2 *1677:B 4.50413e-05
3 *1907:Q 0.000691339
4 *701:14 6.64543e-05
5 *701:10 0.000712752
6 *1677:B *984:128 0.000128578
7 *701:10 *1922:CLK 0
8 *701:10 *1160:8 0
9 *701:14 *984:128 7.51684e-05
10 *1513:D *701:10 0
11 *1727:B1 *701:10 0
12 *1907:D *701:10 0
13 *167:14 *1677:B 0
14 *529:10 *701:10 0
15 *534:12 *701:10 0.000923318
*RES
1 *1907:Q *701:10 46.7496 
2 *701:10 *701:14 20.2992 
3 *701:14 *1677:B 20.5104 
4 *701:14 *1508:A 20 
*END

*D_NET *702 0.00141419
*CONN
*I *1458:B I *D sg13g2_nor3_2
*I *1700:A I *D sg13g2_nand3_1
*I *1914:Q O *D sg13g2_dfrbp_1
*CAP
1 *1458:B 0.000122208
2 *1700:A 6.04924e-05
3 *1914:Q 5.68018e-05
4 *702:8 0.000239502
5 *1458:B *740:13 0.000194109
6 *1458:B *1024:67 4.78029e-05
7 *1700:A *1839:A 3.86694e-05
8 *1700:A *740:13 8.00835e-05
9 *702:8 *1839:A 0.000287258
10 *702:8 *978:20 0.000106065
11 *702:8 *978:30 0.000181194
12 *1700:C *1700:A 0
*RES
1 *1914:Q *702:8 41.144 
2 *702:8 *1700:A 40.6116 
3 *702:8 *1458:B 41.1968 
*END

*D_NET *703 0.00105849
*CONN
*I *1458:A I *D sg13g2_nor3_2
*I *1704:A I *D sg13g2_nand3_1
*I *1915:Q O *D sg13g2_dfrbp_1
*CAP
1 *1458:A 0
2 *1704:A 6.098e-05
3 *1915:Q 0.000240918
4 *703:8 0.000301898
5 *1704:A *1704:B 0.000144734
6 *1704:A *1024:67 7.51291e-05
7 *703:8 *1704:B 0
8 *703:8 *1704:C 0
9 *703:8 *1709:B 0
10 *703:8 *742:17 0
11 *703:8 *743:17 0
12 *188:10 *703:8 0.000234832
*RES
1 *1915:Q *703:8 22.4464 
2 *703:8 *1704:A 20.7876 
3 *703:8 *1458:A 20 
*END

*D_NET *704 0.00557069
*CONN
*I *1479:B I *D sg13g2_nand2b_1
*I *1470:A I *D sg13g2_nor2_1
*I *1707:A I *D sg13g2_nand3_1
*I *1458:C I *D sg13g2_nor3_2
*I *1916:Q O *D sg13g2_dfrbp_1
*CAP
1 *1479:B 0.000191495
2 *1470:A 0
3 *1707:A 6.90129e-05
4 *1458:C 0.000240066
5 *1916:Q 0.00013577
6 *704:38 5.21059e-05
7 *704:32 0.00149915
8 *704:21 0.00132456
9 *704:8 0.000375837
10 *1458:C *741:21 0
11 *1458:C *742:17 0
12 *1458:C *743:17 0.000307886
13 *1479:B *705:27 0.000127872
14 *1479:B *976:42 0
15 *1707:A *1707:B 9.15777e-05
16 *1707:A *1724:B 0.000106065
17 *1707:A *741:21 0
18 *704:8 *978:39 0
19 *704:32 *1711:A 0
20 *704:32 *1717:B 5.57944e-05
21 *704:32 *1717:A 0
22 *704:32 *1723:A 0.000207251
23 *704:32 *1724:B 0
24 *704:32 *1724:A 0
25 *704:32 *1774:A 0
26 *704:32 *705:10 0
27 *704:32 *705:27 0.00049771
28 *704:32 *741:21 0.000180955
29 *704:32 *742:17 0
30 *704:32 *976:42 0
31 *704:32 *1032:70 0
32 *704:32 *1032:85 0
33 *1483:A0 *1479:B 1.55978e-05
34 *1712:A2 *704:32 0
35 *479:10 *1458:C 9.19891e-05
*RES
1 *1916:Q *704:8 41.1968 
2 *704:8 *1458:C 42.3012 
3 *704:8 *704:21 20 
4 *704:21 *1707:A 20.7876 
5 *704:21 *704:32 10.8944 
6 *704:32 *704:38 40.4576 
7 *704:38 *1470:A 20 
8 *704:32 *1479:B 21.9184 
*END

*D_NET *705 0.00476701
*CONN
*I *1478:A0 I *D sg13g2_mux2_1
*I *1479:A_N I *D sg13g2_nand2b_1
*I *1470:B I *D sg13g2_nor2_1
*I *1711:A I *D sg13g2_nand3_1
*I *1917:Q O *D sg13g2_dfrbp_1
*CAP
1 *1478:A0 0.000139636
2 *1479:A_N 6.71485e-05
3 *1470:B 0
4 *1711:A 6.18295e-05
5 *1917:Q 2.44842e-05
6 *705:27 0.000439714
7 *705:10 0.000826867
8 *705:6 0.000556592
9 *1478:A0 *976:42 0.000189523
10 *705:10 *976:42 0.00108411
11 *705:10 *1024:118 0
12 *705:27 *1774:A 0.000297798
13 *705:27 *1015:6 0
14 *705:27 *1157:8 0
15 *1479:B *705:27 0.000127872
16 *1481:A1 *1478:A0 0
17 *1483:A0 *1479:A_N 0.000180374
18 *1483:A0 *705:27 0
19 *1917:D *1711:A 0.000145151
20 *1917:D *705:10 0
21 *479:14 *1478:A0 0
22 *479:14 *1711:A 0
23 *479:14 *705:10 0
24 *498:35 *1478:A0 0.000128201
25 *704:32 *1711:A 0
26 *704:32 *705:10 0
27 *704:32 *705:27 0.00049771
*RES
1 *1917:Q *705:6 20.2728 
2 *705:6 *705:10 5.2184 
3 *705:10 *1711:A 20.7876 
4 *705:10 *705:27 44.4352 
5 *705:27 *1470:B 20 
6 *705:27 *1479:A_N 20.7216 
7 *705:6 *1478:A0 21.6632 
*END

*D_NET *706 0.00354985
*CONN
*I *1774:A I *D sg13g2_buf_2
*I *1714:A I *D sg13g2_nand3_1
*I *1918:Q O *D sg13g2_dfrbp_1
*CAP
1 *1774:A 0.000528306
2 *1714:A 0.000454721
3 *1918:Q 0
4 *706:6 0.000983027
5 *1714:A *1714:B 9.18e-05
6 *1714:A *1715:B1 0
7 *1714:A *989:42 0.000406194
8 *1714:A *1032:56 0
9 *1774:A *1717:A 0.000497419
10 *1774:A *989:42 0.000113244
11 *1774:A *1032:56 0
12 *1774:A *1032:85 0.000177337
13 *479:14 *1714:A 0
14 *704:32 *1774:A 0
15 *705:27 *1774:A 0.000297798
*RES
1 *1918:Q *706:6 40 
2 *706:6 *1714:A 44.3604 
3 *706:6 *1774:A 45.5022 
*END

*D_NET *707 0.00920093
*CONN
*I *1489:B I *D sg13g2_xor2_1
*I *1460:B I *D sg13g2_nor2_1
*I *1464:C I *D sg13g2_or3_1
*I *1473:A2 I *D sg13g2_o21ai_1
*I *1468:A I *D sg13g2_inv_1
*I *1717:A I *D sg13g2_nand3_1
*I *1456:C I *D sg13g2_nor4_1
*I *1919:Q O *D sg13g2_dfrbp_1
*CAP
1 *1489:B 8.34908e-05
2 *1460:B 0.00016387
3 *1464:C 0.00029435
4 *1473:A2 0
5 *1468:A 0
6 *1717:A 0.000725695
7 *1456:C 0
8 *1919:Q 0.000189085
9 *707:81 0.000350015
10 *707:61 0.000738855
11 *707:53 0.000643599
12 *707:29 0.00101741
13 *707:25 0.000507746
14 *707:18 0.000111437
15 *707:10 0.000420115
16 *1460:B *1460:A 2.21754e-05
17 *1460:B *1018:8 0
18 *1460:B *1018:18 0
19 *1464:C *1464:B 3.49263e-05
20 *1464:C *1473:B1 0
21 *1464:C *1473:A1 0.000205638
22 *1464:C *1018:75 0.000128389
23 *1464:C *1019:10 0
24 *1489:B *1018:18 0
25 *1717:A *1724:A 0.00036068
26 *1717:A *1015:14 0
27 *1717:A *1019:80 0
28 *707:10 *1467:A_N 0
29 *707:18 *1456:B 3.86694e-05
30 *707:18 *1469:A1 0
31 *707:25 *1460:A 0
32 *707:29 *1015:14 0
33 *707:29 *1016:10 0
34 *707:61 *1473:B1 2.20968e-05
35 *707:61 *1018:18 0
36 *707:61 *1018:75 0
37 *707:81 *1460:A 0
38 *1456:D *707:18 3.86694e-05
39 *1465:B1 *707:61 0
40 *1475:A2 *1464:C 0
41 *1774:A *1717:A 0.000497419
42 *15:10 *707:10 0.000287676
43 *15:29 *707:10 0.000181422
44 *15:29 *707:25 0.000212467
45 *16:25 *1460:B 0
46 *16:25 *707:10 0.00017357
47 *16:25 *707:25 0.000386623
48 *16:25 *707:53 0.000230634
49 *16:25 *707:81 0.000284591
50 *477:10 *707:18 8.00835e-05
51 *481:6 *1460:B 2.21754e-05
52 *485:6 *1464:C 0.000447339
53 *485:14 *707:61 0
54 *490:10 *707:61 0.000177108
55 *491:12 *707:29 0
56 *492:10 *707:53 0
57 *492:10 *707:81 0
58 *495:12 *1464:C 0
59 *495:12 *707:61 0.000122911
60 *704:32 *1717:A 0
*RES
1 *1919:Q *707:10 22.3232 
2 *707:10 *707:18 40.9812 
3 *707:18 *1456:C 20 
4 *707:10 *707:25 1.5664 
5 *707:25 *707:29 22.4904 
6 *707:29 *1717:A 47.777 
7 *707:29 *1468:A 40 
8 *707:25 *707:53 0.9328 
9 *707:53 *707:61 44.4528 
10 *707:61 *1473:A2 20 
11 *707:61 *1464:C 23.564 
12 *707:53 *707:81 21.144 
13 *707:81 *1460:B 41.6104 
14 *707:81 *1489:B 41.012 
*END

*D_NET *708 0.000401208
*CONN
*I *1776:A I *D sg13g2_buf_2
*I *1920:Q O *D sg13g2_dfrbp_1
*CAP
1 *1776:A 9.05198e-06
2 *1920:Q 0.000174703
3 *708:10 0.000183755
4 *1776:A *1017:21 3.36976e-05
5 *708:10 *984:128 0
6 *708:10 *1017:21 0
*RES
1 *1920:Q *708:10 41.6808 
2 *708:10 *1776:A 40.1342 
*END

*D_NET *709 0.00131325
*CONN
*I *1778:A I *D sg13g2_buf_2
*I *1452:A I *D sg13g2_nor2b_1
*I *1921:Q O *D sg13g2_dfrbp_1
*CAP
1 *1778:A 0.000167241
2 *1452:A 6.27014e-05
3 *1921:Q 9.56681e-05
4 *709:8 0.000325611
5 *1452:A *1452:B_N 7.51688e-05
6 *1452:A *1019:51 8.01437e-05
7 *1778:A *1016:75 0
8 *1778:A *1019:51 0.00022776
9 *709:8 *1452:B_N 0.000128201
10 *16:10 *709:8 7.53965e-05
11 *473:6 *1452:A 7.53575e-05
*RES
1 *1921:Q *709:8 41.144 
2 *709:8 *1452:A 40.7568 
3 *709:8 *1778:A 41.7006 
*END

*D_NET *710 0.00248376
*CONN
*I *1681:A I *D sg13g2_and2_1
*I *1188:A I *D sg13g2_nand2_1
*I *1167:A1 I *D sg13g2_a21o_1
*I *1912:Q O *D sg13g2_dfrbp_1
*CAP
1 *1681:A 0.0002434
2 *1188:A 0
3 *1167:A1 0
4 *1912:Q 7.01752e-05
5 *710:25 0.000669077
6 *710:14 0.000362102
7 *710:6 0.000857954
8 *1681:A *1681:B 0.000234455
9 *710:6 *1809:A 0
10 *710:6 *985:50 0
11 *710:6 *990:6 0
12 *710:14 *1809:A 0
13 *710:14 *990:6 0
14 *710:14 *990:16 0
15 *710:25 *985:40 0
16 *710:25 *985:50 0
17 *710:25 *990:25 0
18 *1690:A *1681:A 0
19 *1693:A *1681:A 4.65959e-05
20 *532:12 *1681:A 0
*RES
1 *1912:Q *710:6 20.7216 
2 *710:6 *710:14 43.3704 
3 *710:14 *1167:A1 20 
4 *710:6 *710:25 43.9688 
5 *710:25 *1188:A 20 
6 *710:25 *1681:A 22.112 
*END

*D_NET *711 0.000807867
*CONN
*I *1187:A I *D sg13g2_inv_1
*I *1511:A I *D sg13g2_nand2_1
*I *1913:Q O *D sg13g2_dfrbp_1
*CAP
1 *1187:A 9.98838e-05
2 *1511:A 0.00017566
3 *1913:Q 0
4 *711:6 0.000275544
5 *1187:A *1913:CLK 0.000128161
6 *1187:A *1023:14 0
7 *1511:A *1023:14 0
8 *1678:A1 *1187:A 0
9 *1678:A1 *1511:A 0
10 *1690:A *1511:A 0
11 *171:10 *1511:A 0
12 *532:12 *1511:A 0.000128618
*RES
1 *1913:Q *711:6 40 
2 *711:6 *1511:A 41.7072 
3 *711:6 *1187:A 40.968 
*END

*D_NET *712 0.00413871
*CONN
*I *1728:C I *D sg13g2_or4_1
*I *1726:A I *D sg13g2_inv_1
*I *1922:Q O *D sg13g2_dfrbp_1
*CAP
1 *1728:C 0
2 *1726:A 0.000625893
3 *1922:Q 2.52799e-05
4 *712:29 0.00102428
5 *712:6 0.00167545
6 *1726:A *1922:CLK 0
7 *1726:A *986:49 0
8 *712:29 *1183:A 0
9 *712:29 *986:49 0
10 *712:29 *988:38 0
11 *1728:D *712:29 1.53099e-05
12 *1882:D *712:29 0
13 *1922:D *1726:A 0.000234683
14 *198:8 *712:29 0.000537819
15 *219:10 *712:29 0
*RES
1 *1922:Q *712:6 20.2728 
2 *712:6 *1726:A 26.4328 
3 *712:6 *712:29 49.6536 
4 *712:29 *1728:C 20 
*END

*D_NET *736 0.00385787
*CONN
*P queries[120] I
*I *1842:A I *D sg13g2_buf_1
*CAP
1 queries[120] 0.000752797
2 *1842:A 0.000414301
3 *736:11 0.0011671
4 *1842:A *1839:A 0.000868089
5 *1842:A *738:11 0.000655582
6 *736:11 *740:13 0
7 *736:11 *742:17 0
*RES
1 queries[120] *736:11 45.6496 
2 *736:11 *1842:A 25.5792 
*END

*D_NET *737 0.00310494
*CONN
*P queries[121] I
*I *1841:A I *D sg13g2_buf_1
*CAP
1 queries[121] 0.000748954
2 *1841:A 0.000748954
3 *1841:A *742:17 0.00154333
4 *1841:A *743:17 6.37023e-05
*RES
1 queries[121] *1841:A 28.976 
*END

*D_NET *738 0.00363647
*CONN
*P queries[122] I
*I *1840:A I *D sg13g2_buf_1
*CAP
1 queries[122] 0.000932917
2 *1840:A 0.000165691
3 *738:11 0.00109861
4 *1840:A *740:13 0.000233457
5 *1840:A *741:13 0.000550212
6 *738:11 *1839:A 0
7 *1842:A *738:11 0.000655582
*RES
1 queries[122] *738:11 48.9232 
2 *738:11 *1840:A 22.2 
*END

*D_NET *739 0.00705676
*CONN
*P queries[123] I
*I *1839:A I *D sg13g2_buf_1
*CAP
1 queries[123] 0.00178979
2 *1839:A 0.00178979
3 *1839:A *1699:B 0
4 *1839:A *1918:CLK 0
5 *1839:A *743:17 0
6 *1839:A *978:20 0.000462983
7 *1839:A *978:30 0.000925284
8 *1839:A *1083:10 0
9 *1700:C *1839:A 7.51291e-05
10 *1700:A *1839:A 3.86694e-05
11 *1842:A *1839:A 0.000868089
12 *1914:D *1839:A 0.000819762
13 *702:8 *1839:A 0.000287258
14 *738:11 *1839:A 0
*RES
1 queries[123] *1839:A 39.36 
*END

*D_NET *740 0.00856283
*CONN
*P queries[124] I
*I *1838:A I *D sg13g2_buf_1
*CAP
1 queries[124] 0.00228709
2 *1838:A 0
3 *740:13 0.00228709
4 *740:13 *1706:A 0
5 *740:13 *741:13 0
6 *740:13 *741:21 0.00106562
7 *740:13 *742:17 0.0012896
8 *740:13 *978:39 0.000371027
9 *740:13 *1024:31 0
10 *740:13 *1024:67 0
11 *740:13 *1028:42 0
12 *740:13 *1028:55 0
13 *1458:B *740:13 0.000194109
14 *1700:A *740:13 8.00835e-05
15 *1840:A *740:13 0.000233457
16 *88:10 *740:13 0.000544546
17 *185:8 *740:13 0.000210195
18 *736:11 *740:13 0
*RES
1 queries[124] *740:13 40.768 
2 *740:13 *1838:A 40 
*END

*D_NET *741 0.00682406
*CONN
*P queries[125] I
*I *1837:A I *D sg13g2_buf_1
*CAP
1 queries[125] 0.00139302
2 *1837:A 0
3 *741:21 0.000654177
4 *741:13 0.0020472
5 *741:13 *1703:B 1.53311e-05
6 *741:13 *1705:B1 2.80969e-05
7 *741:13 *1706:A 0.000339523
8 *741:21 *1706:A 0.000339508
9 *741:21 *1707:B 0
10 *741:21 *1708:B1 0
11 *741:21 *742:17 0
12 *741:21 *1028:81 0.000210414
13 *1458:C *741:21 0
14 *1707:A *741:21 0
15 *1708:A2 *741:21 0
16 *1840:A *741:13 0.000550212
17 *89:10 *741:21 0
18 *188:10 *741:13 0
19 *704:32 *741:21 0.000180955
20 *740:13 *741:13 0
21 *740:13 *741:21 0.00106562
*RES
1 queries[125] *741:13 32.4784 
2 *741:13 *741:21 46.9872 
3 *741:21 *1837:A 40 
*END

*D_NET *742 0.0105979
*CONN
*P queries[126] I
*I *1836:A I *D sg13g2_buf_1
*CAP
1 queries[126] 0.0029557
2 *1836:A 0
3 *742:17 0.0029557
4 *742:17 *1709:B 0
5 *742:17 *1717:B 0
6 *742:17 *743:17 0
7 *742:17 *978:20 0
8 *742:17 *1023:33 0
9 *742:17 *1032:39 0.000243281
10 *742:17 *1032:56 0.000260668
11 *742:17 *1082:14 0.000607002
12 *742:17 *1158:8 0
13 *1458:C *742:17 0
14 *1724:C *742:17 0
15 *1841:A *742:17 0.00154333
16 *168:23 *742:17 0
17 *188:10 *742:17 0.000499055
18 *479:10 *742:17 0.000243593
19 *703:8 *742:17 0
20 *704:32 *742:17 0
21 *736:11 *742:17 0
22 *740:13 *742:17 0.0012896
23 *741:21 *742:17 0
*RES
1 queries[126] *742:17 49.5504 
2 *742:17 *1836:A 40 
*END

*D_NET *743 0.00550771
*CONN
*P queries[127] I
*I *1835:A I *D sg13g2_buf_1
*CAP
1 queries[127] 0.00230717
2 *1835:A 0
3 *743:17 0.00230717
4 *743:17 *1704:C 0.000181611
5 *743:17 *978:20 0
6 *743:17 *978:30 0
7 *743:17 *1024:67 0.000340167
8 *743:17 *1028:55 0
9 *743:17 *1082:14 0
10 *1458:C *743:17 0.000307886
11 *1839:A *743:17 0
12 *1841:A *743:17 6.37023e-05
13 *1915:D *743:17 0
14 *188:10 *743:17 0
15 *703:8 *743:17 0
16 *742:17 *743:17 0
*RES
1 queries[127] *743:17 40.152 
2 *743:17 *1835:A 40 
*END

*D_NET *757 0.00359759
*CONN
*P queries[24] I
*I *1834:A I *D sg13g2_buf_1
*CAP
1 queries[24] 0.00107228
2 *1834:A 0.00107228
3 *1834:A results[61] 0
4 *1834:A *1828:A 0.00145302
5 *1834:A *761:9 0
6 *1545:A1 *1834:A 0
*RES
1 queries[24] *1834:A 30.2432 
*END

*D_NET *758 0.00591719
*CONN
*P queries[25] I
*I *1833:A I *D sg13g2_buf_1
*CAP
1 queries[25] 0.00241018
2 *1833:A 8.42939e-05
3 *758:9 0.00249447
4 *758:9 results[106] 0.000928247
5 *758:9 results[72] 0
6 *758:9 *759:9 0
7 *758:9 *761:9 0
8 *758:9 *762:9 0
9 *758:9 *904:8 0
*RES
1 queries[25] *758:9 41.4896 
2 *758:9 *1833:A 40.7216 
*END

*D_NET *759 0.00650843
*CONN
*P queries[26] I
*I *1832:A I *D sg13g2_buf_1
*CAP
1 queries[26] 0.00252432
2 *1832:A 0
3 *759:9 0.00252432
4 *759:9 results[2] 0
5 *759:9 results[63] 0
6 *759:9 *904:8 0.000729772
7 *759:9 *951:8 0
8 *759:9 *954:10 0.000730026
9 *35:10 *759:9 0
10 *758:9 *759:9 0
*RES
1 queries[26] *759:9 41.648 
2 *759:9 *1832:A 40 
*END

*D_NET *760 0.00918262
*CONN
*P queries[27] I
*I *1831:A I *D sg13g2_buf_1
*CAP
1 queries[27] 0.00197082
2 *1831:A 0
3 *760:13 0.00224202
4 *760:7 0.00421284
5 *760:7 results[106] 0
6 *760:7 results[21] 0
7 *760:7 results[51] 0
8 *760:13 *762:9 0
9 *760:13 *765:11 0
10 *760:13 *917:10 0
11 *760:13 *983:23 0
12 *1209:C *760:13 4.78029e-05
13 *565:8 *760:13 0
14 *656:12 *760:13 0.000634013
15 *656:23 *760:13 7.51291e-05
*RES
1 queries[27] *760:7 35.2504 
2 *760:7 *760:13 41.6392 
3 *760:13 *1831:A 20 
*END

*D_NET *761 0.0032042
*CONN
*P queries[28] I
*I *1830:A I *D sg13g2_buf_1
*CAP
1 queries[28] 0.0016021
2 *1830:A 0
3 *761:9 0.0016021
4 *761:9 results[61] 0
5 *1834:A *761:9 0
6 *758:9 *761:9 0
*RES
1 queries[28] *761:9 34.3616 
2 *761:9 *1830:A 40 
*END

*D_NET *762 0.0055108
*CONN
*P queries[29] I
*I *1829:A I *D sg13g2_buf_1
*CAP
1 queries[29] 0.0027554
2 *1829:A 0
3 *762:9 0.0027554
4 *762:9 results[72] 0
5 *762:9 *893:10 0
6 *762:9 *917:10 0
7 *762:9 *955:10 0
8 *762:9 *963:10 0
9 *758:9 *762:9 0
10 *760:13 *762:9 0
*RES
1 queries[29] *762:9 43.3376 
2 *762:9 *1829:A 40 
*END

*D_NET *764 0.0042474
*CONN
*P queries[30] I
*I *1828:A I *D sg13g2_buf_1
*CAP
1 queries[30] 0.000828069
2 *1828:A 0.000545165
3 *764:11 0.00137323
4 *764:11 results[22] 0
5 *764:11 *765:7 0
6 *1545:A1 *1828:A 4.79124e-05
7 *1834:A *1828:A 0.00145302
*RES
1 queries[30] *764:11 47.4976 
2 *764:11 *1828:A 27.0928 
*END

*D_NET *765 0.007602
*CONN
*P queries[31] I
*I *1827:A I *D sg13g2_buf_1
*CAP
1 queries[31] 0.00189916
2 *1827:A 0
3 *765:11 0.00148017
4 *765:7 0.00337934
5 *765:7 results[104] 0
6 *765:7 *1854:CLK 0
7 *765:7 *851:10 0
8 *765:7 *1025:12 0
9 *765:7 *1025:16 0
10 *765:7 *1025:24 0
11 *765:11 *1552:B 0
12 *765:11 *1559:B 0
13 *765:11 *983:10 0
14 *765:11 *983:23 0
15 *765:11 *994:10 0
16 *765:11 *1025:12 0
17 *765:11 *1025:75 0
18 *765:11 *1072:10 0
19 *1209:B *765:11 0.000601254
20 *654:10 *765:11 0.000242073
21 *760:13 *765:11 0
22 *764:11 *765:7 0
*RES
1 queries[31] *765:7 36.0952 
2 *765:7 *765:11 33.948 
3 *765:11 *1827:A 20 
*END

*D_NET *792 0.00809395
*CONN
*P queries[56] I
*I *1826:A I *D sg13g2_buf_1
*CAP
1 queries[56] 0.00109855
2 *1826:A 0
3 *792:19 0.00250076
4 *792:11 0.00359931
5 *792:11 *793:9 0
6 *792:11 *794:11 0.000445397
7 *792:19 *1619:C 1.54007e-05
8 *792:19 *794:15 0
9 *792:19 *797:9 0
10 *792:19 *1003:18 0
11 *792:19 *1026:30 0.000209703
12 *792:19 *1026:36 0
13 *792:19 *1026:42 0.00014502
14 *792:19 *1026:52 0
15 *792:19 *1026:138 0
16 *792:19 *1067:10 0
17 *792:19 *1119:8 0
18 *792:19 *1121:8 0
19 *1608:B *792:19 0
20 *119:10 *792:19 7.98231e-05
21 *125:8 *792:19 0
22 *676:10 *792:19 0
*RES
1 queries[56] *792:11 49.3456 
2 *792:11 *792:19 44.3672 
3 *792:19 *1826:A 20 
*END

*D_NET *793 0.00775143
*CONN
*P queries[57] I
*I *1825:A I *D sg13g2_buf_1
*CAP
1 queries[57] 0.00341784
2 *1825:A 8.75032e-05
3 *793:9 0.00350534
4 *1825:A *1597:B 0
5 *793:9 results[108] 0
6 *793:9 results[111] 0
7 *793:9 *1597:B 0.000288242
8 *793:9 *987:75 0
9 *793:9 *1118:8 0.000243534
10 *57:10 *793:9 0.000208975
11 *192:15 *793:9 0
12 *192:32 *793:9 0
13 *192:43 *793:9 0
14 *192:67 *793:9 0
15 *380:10 *793:9 0
16 *792:11 *793:9 0
*RES
1 queries[57] *793:9 49.9376 
2 *793:9 *1825:A 20.8272 
*END

*D_NET *794 0.00727942
*CONN
*P queries[58] I
*I *1824:A I *D sg13g2_buf_1
*CAP
1 queries[58] 0.000863384
2 *1824:A 0
3 *794:15 0.00161762
4 *794:11 0.002481
5 *794:11 results[108] 0
6 *794:15 *1619:C 0
7 *794:15 *987:50 0.000276005
8 *794:15 *1119:8 0.00024404
9 *794:15 *1121:8 0
10 *1879:CLK *794:15 0
11 *56:8 *794:15 0.00135197
12 *792:11 *794:11 0.000445397
13 *792:19 *794:15 0
*RES
1 queries[58] *794:11 46.996 
2 *794:11 *794:15 36.72 
3 *794:15 *1824:A 20 
*END

*D_NET *795 0.00938977
*CONN
*P queries[59] I
*I *1823:A I *D sg13g2_buf_1
*CAP
1 queries[59] 0.00308573
2 *1823:A 0
3 *795:15 0.00308573
4 *795:15 *1603:A 0.000154717
5 *795:15 *797:9 0
6 *795:15 *798:9 0.00186719
7 *795:15 *800:11 0
8 *795:15 *1009:131 0.000438054
9 *795:15 *1030:72 0
10 *795:15 *1030:91 0
11 *107:10 *795:15 0.000287486
12 *380:33 *795:15 0.000470861
*RES
1 queries[59] *795:15 46.9808 
2 *795:15 *1823:A 20 
*END

*D_NET *797 0.00548905
*CONN
*P queries[60] I
*I *1822:A I *D sg13g2_buf_1
*CAP
1 queries[60] 0.00264007
2 *1822:A 0
3 *797:9 0.00264007
4 *797:9 *1607:A 0
5 *797:9 *799:13 0
6 *797:9 *1003:18 0
7 *797:9 *1008:12 0
8 *797:9 *1008:40 0
9 *797:9 *1026:138 0.000208899
10 *107:10 *797:9 0
11 *183:37 *797:9 0
12 *792:19 *797:9 0
13 *795:15 *797:9 0
*RES
1 queries[60] *797:9 45.6608 
2 *797:9 *1822:A 20 
*END

*D_NET *798 0.00639659
*CONN
*P queries[61] I
*I *1821:A I *D sg13g2_buf_1
*CAP
1 queries[61] 0.0022647
2 *1821:A 0
3 *798:9 0.0022647
4 *798:9 *1610:A 0
5 *798:9 *1007:10 0
6 *798:9 *1030:91 0
7 *22:14 *798:9 0
8 *22:20 *798:9 0
9 *22:28 *798:9 0
10 *324:8 *798:9 0
11 *795:15 *798:9 0.00186719
*RES
1 queries[61] *798:9 41.0672 
2 *798:9 *1821:A 20 
*END

*D_NET *799 0.00923653
*CONN
*P queries[62] I
*I *1820:A I *D sg13g2_buf_1
*CAP
1 queries[62] 0.00304737
2 *1820:A 0
3 *799:19 0.000113331
4 *799:13 0.0031607
5 *799:13 *1616:B 0
6 *799:13 *1619:B 4.14315e-05
7 *799:13 *1619:C 0.000234415
8 *799:13 *1619:A 0.000304209
9 *799:13 *800:11 0
10 *799:13 *987:50 0
11 *799:13 *1003:10 0.000211252
12 *799:13 *1008:12 0.000503768
13 *799:13 *1008:40 0.000307948
14 *799:19 results[111] 0.000209173
15 *1613:A1 *799:13 0
16 *1613:A2 *799:13 0
17 *1764:A *799:13 0.000606397
18 *124:12 *799:13 0
19 *192:32 *799:13 0.00028688
20 *192:32 *799:19 0.000209665
21 *192:43 *799:13 0
22 *797:9 *799:13 0
*RES
1 queries[62] *799:13 47.5264 
2 *799:13 *799:19 41.1968 
3 *799:19 *1820:A 20 
*END

*D_NET *800 0.00740651
*CONN
*P queries[63] I
*I *1819:A I *D sg13g2_buf_1
*CAP
1 queries[63] 0.00359804
2 *1819:A 0
3 *800:11 0.00359804
4 *800:11 *1808:A 0
5 *800:11 *1880:RESET_B 0
6 *800:11 *987:75 0
7 *800:11 *1003:10 0.000210432
8 *800:11 *1009:131 0
9 *800:11 *1049:8 0
10 *1620:A2 *800:11 0
11 *1764:A *800:11 0
12 *124:12 *800:11 0
13 *192:43 *800:11 0
14 *795:15 *800:11 0
15 *799:13 *800:11 0
*RES
1 queries[63] *800:11 48.3888 
2 *800:11 *1819:A 20 
*END

*D_NET *827 0.00863455
*CONN
*P queries[88] I
*I *1818:A I *D sg13g2_buf_1
*CAP
1 queries[88] 0.00349198
2 *1818:A 0
3 *827:13 0.00349198
4 *827:13 results[127] 0
5 *827:13 results[40] 0.000886206
6 *827:13 *1895:CLK 0.000187717
7 *827:13 *828:13 0
8 *827:13 *876:21 0
9 *827:13 *974:56 0.000308195
10 *827:13 *975:62 0
11 *827:13 *991:28 0
12 *827:13 *1027:16 0
13 *827:13 *1043:12 5.77829e-05
14 *827:13 *1055:10 0.000210685
15 *827:13 *1135:8 0
16 *827:13 *1140:10 0
17 *69:10 *827:13 0
*RES
1 queries[88] *827:13 31.1256 
2 *827:13 *1818:A 40 
*END

*D_NET *828 0.00747244
*CONN
*P queries[89] I
*I *1817:A I *D sg13g2_buf_1
*CAP
1 queries[89] 0.00308966
2 *1817:A 0
3 *828:13 0.00308966
4 *828:13 results[113] 0
5 *828:13 results[123] 0.000886935
6 *828:13 results[12] 0
7 *828:13 *1669:B1 0
8 *828:13 *1895:CLK 0
9 *828:13 *876:21 0
10 *828:13 *991:28 0
11 *1895:D *828:13 0
12 *75:12 *828:13 0.000406193
13 *827:13 *828:13 0
*RES
1 queries[89] *828:13 44.508 
2 *828:13 *1817:A 20 
*END

*D_NET *830 0.00858816
*CONN
*P queries[90] I
*I *1816:A I *D sg13g2_buf_1
*CAP
1 queries[90] 0.000696822
2 *1816:A 0
3 *830:15 0.00216193
4 *830:11 0.00285875
5 *830:11 results[14] 0
6 *830:11 results[16] 0
7 *830:15 results[37] 0.00158394
8 *830:15 results[48] 0.000178826
9 *830:15 *832:25 0
10 *830:15 *913:16 0.000886743
11 *830:15 *975:26 0
12 *830:15 *992:33 0
13 *830:15 *1020:20 0
14 *830:15 *1020:38 7.81028e-05
15 *830:15 *1031:18 0
16 *1661:A *830:15 0.000143039
17 *690:10 *830:15 0
*RES
1 queries[90] *830:11 45.3328 
2 *830:11 *830:15 41.8944 
3 *830:15 *1816:A 20 
*END

*D_NET *831 0.00949173
*CONN
*P queries[91] I
*I *1815:A I *D sg13g2_buf_1
*CAP
1 queries[91] 0.00253307
2 *1815:A 0.00026672
3 *831:25 0.00108402
4 *831:19 0.00123971
5 *831:11 0.00295548
6 *1815:A *1734:A 0
7 *1815:A *1027:98 0
8 *831:11 *1444:A1 0
9 *831:11 *973:16 0
10 *831:11 *973:42 0
11 *831:11 *1034:10 0.000527671
12 *831:25 *973:42 0
13 *1428:A1 *831:25 0
14 *1436:B *831:11 0
15 *1448:B1 *831:11 0
16 *1448:A2 *831:11 0
17 *19:25 *831:25 0
18 *154:10 *1815:A 0
19 *408:114 *831:19 0
20 *408:114 *831:25 0
21 *408:127 *831:19 0
22 *429:10 *831:25 0
23 *444:8 *831:25 0
24 *448:16 *831:25 0.000498431
25 *457:12 *831:19 0
26 *458:10 *831:19 4.75868e-05
27 *460:12 *831:11 0.000339042
28 *467:43 *831:11 0
29 *689:10 *831:25 0
30 *689:58 *831:25 0
*RES
1 queries[91] *831:11 42.0792 
2 *831:11 *831:19 43.3176 
3 *831:19 *831:25 48.1136 
4 *831:25 *1815:A 42.6752 
*END

*D_NET *832 0.00874402
*CONN
*P queries[92] I
*I *1814:A I *D sg13g2_buf_1
*CAP
1 queries[92] 0.00236564
2 *1814:A 0
3 *832:25 0.000928664
4 *832:13 0.0032943
5 *832:13 results[118] 0
6 *832:13 results[66] 0
7 *832:13 results[8] 0.000887249
8 *832:13 *1665:B1 0
9 *832:13 *1901:CLK 0
10 *832:13 *833:9 0
11 *832:13 *834:19 0.000393551
12 *832:13 *1027:34 0
13 *832:13 *1141:8 0
14 *832:25 *1667:A 0
15 *832:25 *834:19 0.000143398
16 *832:25 *975:54 0
17 *832:25 *1013:10 0
18 *832:25 *1027:22 0
19 *832:25 *1027:48 0
20 *832:25 *1027:58 0
21 *832:25 *1055:10 0
22 *1898:D *832:25 0
23 *76:10 *832:13 0.000731216
24 *830:15 *832:25 0
*RES
1 queries[92] *832:13 41.5864 
2 *832:13 *832:25 48.2456 
3 *832:25 *1814:A 20 
*END

*D_NET *833 0.00501783
*CONN
*P queries[93] I
*I *1813:A I *D sg13g2_buf_1
*CAP
1 queries[93] 0.00243643
2 *1813:A 0
3 *833:9 0.00243643
4 *833:9 results[116] 0
5 *833:9 results[8] 0
6 *833:9 *1663:A 0
7 *833:9 *1665:B1 2.20968e-05
8 *833:9 *1013:10 0
9 *833:9 *1027:34 0.000122871
10 *832:13 *833:9 0
*RES
1 queries[93] *833:9 40.0112 
2 *833:9 *1813:A 20 
*END

*D_NET *834 0.00671365
*CONN
*P queries[94] I
*I *1812:A I *D sg13g2_buf_1
*CAP
1 queries[94] 0.00280872
2 *1812:A 0
3 *834:19 0.00280872
4 *834:19 results[118] 0
5 *834:19 results[18] 0
6 *834:19 *1665:B1 0
7 *834:19 *1667:A 0
8 *834:19 *1670:A 0
9 *834:19 *1901:CLK 0
10 *834:19 *975:26 0.000543797
11 *834:19 *1012:14 0
12 *834:19 *1013:10 0
13 *834:19 *1027:22 0
14 *834:19 *1141:8 0
15 *1665:A1 *834:19 0
16 *1665:A2 *834:19 0
17 *1772:A *834:19 1.54556e-05
18 *832:13 *834:19 0.000393551
19 *832:25 *834:19 0.000143398
*RES
1 queries[94] *834:19 46.576 
2 *834:19 *1812:A 20 
*END

*D_NET *835 0.0083638
*CONN
*P queries[95] I
*I *1811:A I *D sg13g2_buf_1
*CAP
1 queries[95] 0.00105909
2 *1811:A 0
3 *835:19 0.00251907
4 *835:9 0.00357816
5 *835:9 *864:8 0
6 *835:19 *1383:B 0
7 *835:19 *845:10 0
8 *1382:B1 *835:19 0.000792765
9 *1411:B *835:19 0
10 *1671:A *835:19 0
11 *17:8 *835:19 0
12 *408:10 *835:19 0.000233535
13 *408:14 *835:19 0
14 *408:50 *835:19 0
15 *424:10 *835:19 0.000181194
16 *432:27 *835:19 0
17 *434:18 *835:19 0
18 *436:10 *835:19 0
*RES
1 queries[95] *835:9 30.7712 
2 *835:9 *835:19 42.5808 
3 *835:19 *1811:A 20 
*END

*D_NET *841 0.0119404
*CONN
*P ready I
*I *1810:A I *D sg13g2_buf_1
*CAP
1 ready 0.00174001
2 *1810:A 0.00230579
3 *841:15 0.00359912
4 *841:9 0.00303334
5 *1810:A *1168:B1 6.85001e-05
6 *1810:A *1181:B1 6.85001e-05
7 *1810:A *1892:CLK 0
8 *1810:A *985:14 7.51688e-05
9 *1810:A *985:16 0.000660372
10 *1810:A *991:10 0
11 *1810:A *991:20 0
12 *1810:A *993:10 0
13 *1810:A *1050:14 0
14 *1810:A *1050:21 0
15 *1810:A *1051:8 0
16 *1168:A2 *1810:A 0.00031453
17 *1181:A2 *1810:A 0
18 *1852:D *1810:A 0
19 *205:22 *1810:A 7.51291e-05
20 *215:14 *1810:A 0
21 *662:10 *1810:A 0
*RES
1 ready *841:9 35.9984 
2 *841:9 *841:15 33.4288 
3 *841:15 *1810:A 43.5664 
*END

*D_NET *842 0.00547953
*CONN
*P reset I
*I *1809:A I *D sg13g2_buf_1
*CAP
1 reset 0.00270207
2 *1809:A 0.00270207
3 *1809:A *979:22 0
4 *1809:A *985:50 0
5 *1809:A *1145:10 7.53965e-05
6 *1912:D *1809:A 0
7 *205:12 *1809:A 0
8 *205:22 *1809:A 0
9 *648:13 *1809:A 0
10 *710:6 *1809:A 0
11 *710:14 *1809:A 0
*RES
1 reset *1809:A 47.7552 
*END

*D_NET *843 0.00291119
*CONN
*P results[0] O
*I *1923:L_LO O *D sg13g2_tielo
*CAP
1 results[0] 0.0010198
2 *1923:L_LO 0.000435796
3 *843:10 0.00145559
4 results[0] results[117] 0
5 results[0] results[26] 0
6 results[0] *942:8 0
7 *843:10 results[73] 0
8 *843:10 *849:10 0
9 *843:10 *862:10 0
*RES
1 *1923:L_LO *843:10 43.74 
2 *843:10 results[0] 8.5448 
*END

*D_NET *844 0.00316426
*CONN
*P results[100] O
*I *2011:L_LO O *D sg13g2_tielo
*CAP
1 results[100] 0.000935261
2 *2011:L_LO 0.000935261
3 results[100] results[103] 0
4 results[100] results[41] 0
5 results[100] results[4] 0
6 results[100] *957:10 0.00129373
7 *648:9 results[100] 0
*RES
1 *2011:L_LO results[100] 29.3368 
*END

*D_NET *845 0.00589082
*CONN
*P results[101] O
*I *2012:L_LO O *D sg13g2_tielo
*CAP
1 results[101] 0.00088024
2 *2012:L_LO 0.000543817
3 *845:10 0.00142406
4 results[101] results[10] 0
5 results[101] results[119] 0.000959987
6 results[101] results[89] 0
7 results[101] *958:10 0.000895304
8 *845:10 *958:10 0.00118742
9 *835:19 *845:10 0
*RES
1 *2012:L_LO *845:10 46.0632 
2 *845:10 results[101] 28.0256 
*END

*D_NET *846 0.00304015
*CONN
*P results[102] O
*I *2013:L_LO O *D sg13g2_tielo
*CAP
1 results[102] 0.00115605
2 *2013:L_LO 0.000364023
3 *846:8 0.00152007
4 results[102] results[105] 0
5 results[102] results[9] 0
*RES
1 *2013:L_LO *846:8 43.6784 
2 *846:8 results[102] 8.5448 
*END

*D_NET *847 0.00270863
*CONN
*P results[103] O
*I *2014:L_LO O *D sg13g2_tielo
*CAP
1 results[103] 0.000946832
2 *2014:L_LO 0.000946832
3 results[103] results[41] 0.000814971
4 results[103] results[88] 0
5 results[100] results[103] 0
*RES
1 *2014:L_LO results[103] 28.7736 
*END

*D_NET *848 0.00601214
*CONN
*P results[104] O
*I *2015:L_LO O *D sg13g2_tielo
*CAP
1 results[104] 0.0021839
2 *2015:L_LO 0
3 *848:6 0.0021839
4 results[104] results[61] 0.00164434
5 results[104] *932:8 0
6 *765:7 results[104] 0
*RES
1 *2015:L_LO *848:6 40 
2 *848:6 results[104] 40.724 
*END

*D_NET *849 0.0105005
*CONN
*P results[105] O
*I *2016:L_LO O *D sg13g2_tielo
*CAP
1 results[105] 0.00091082
2 *2016:L_LO 9.84323e-05
3 *849:10 0.00474678
4 *849:8 0.00393439
5 results[105] results[64] 0
6 *849:8 *927:10 0.000128539
7 *849:8 *929:10 7.51291e-05
8 *849:8 *969:10 0
9 *849:10 results[112] 0
10 *849:10 results[50] 0
11 *849:10 results[66] 0
12 *849:10 *862:10 0.000606436
13 *849:10 *878:10 0
14 *849:10 *929:10 0
15 results[102] results[105] 0
16 *843:10 *849:10 0
*RES
1 *2016:L_LO *849:8 21.1528 
2 *849:8 *849:10 31.9792 
3 *849:10 results[105] 27.9904 
*END

*D_NET *850 0.00713973
*CONN
*P results[106] O
*I *2017:L_LO O *D sg13g2_tielo
*CAP
1 results[106] 0.00223867
2 *2017:L_LO 0.000146673
3 *850:8 0.00238534
4 results[106] *898:10 0.00144079
5 results[106] *950:10 0
6 *758:9 results[106] 0.000928247
7 *760:7 results[106] 0
*RES
1 *2017:L_LO *850:8 41.3552 
2 *850:8 results[106] 40.3544 
*END

*D_NET *851 0.00270237
*CONN
*P results[107] O
*I *2018:L_LO O *D sg13g2_tielo
*CAP
1 results[107] 0.000293812
2 *2018:L_LO 0.000703221
3 *851:10 0.000997033
4 results[107] results[43] 0
5 results[107] results[65] 0
6 *851:10 results[22] 0.000708301
7 *851:10 results[43] 0
8 *765:7 *851:10 0
*RES
1 *2018:L_LO *851:10 47.7264 
2 *851:10 results[107] 22.7896 
*END

*D_NET *852 0.00235885
*CONN
*I *1808:A I *D sg13g2_buf_1
*I *1515:A1 I *D sg13g2_mux2_1
*I *1908:Q O *D sg13g2_dfrbp_1
*CAP
1 *1808:A 0.000344105
2 *1515:A1 0.000835318
3 *1908:Q 0
4 *852:6 0.00117942
5 *1515:A1 results[110] 0
6 *1515:A1 *1805:A 0
7 *1515:A1 *1806:A 0
8 *1515:A1 *1047:8 0
9 *1808:A results[110] 0
10 *83:10 *1515:A1 0
11 *192:32 *1515:A1 0
12 *192:32 *1808:A 0
13 *380:40 *1515:A1 0
14 *800:11 *1808:A 0
*RES
1 *1908:Q *852:6 40 
2 *852:6 *1515:A1 48.4128 
3 *852:6 *1808:A 43.6872 
*END

*D_NET *853 0.00225187
*CONN
*I *1807:A I *D sg13g2_buf_1
*I *1516:A I *D sg13g2_nand2_1
*I *1909:Q O *D sg13g2_dfrbp_1
*CAP
1 *1807:A 0.000263183
2 *1516:A 0.000586831
3 *1909:Q 0.00025189
4 *853:10 0.0011019
5 *1516:A *1518:A1 0
6 *1516:A *1909:CLK 0
7 *1516:A *976:30 0
8 *1807:A *976:30 0
9 *1807:A *1149:8 0
10 *853:10 *1910:RESET_B 0
11 *853:10 *976:30 0
12 *853:10 *984:120 0
13 *853:10 *1149:8 0
14 *1517:B1 *1516:A 0
15 *1517:A1 *1516:A 4.80605e-05
16 *1910:D *1516:A 0
17 *498:45 *1516:A 0
*RES
1 *1909:Q *853:10 42.6048 
2 *853:10 *1516:A 45.4626 
3 *853:10 *1807:A 42.3056 
*END

*D_NET *854 0.0035992
*CONN
*P results[10] O
*I *1933:L_LO O *D sg13g2_tielo
*CAP
1 results[10] 0.000577554
2 *1933:L_LO 0.000617445
3 *854:12 0.001195
4 results[10] results[119] 0
5 results[10] results[17] 0.000708267
6 results[10] results[89] 0
7 *854:12 results[56] 0
8 *854:12 *879:8 0
9 *854:12 *967:10 0.000500937
10 results[101] results[10] 0
*RES
1 *1933:L_LO *854:12 46.6264 
2 *854:12 results[10] 25.896 
*END

*D_NET *855 0.00206561
*CONN
*I *1806:A I *D sg13g2_buf_1
*I *1518:A1 I *D sg13g2_mux2_1
*I *1910:Q O *D sg13g2_dfrbp_1
*CAP
1 *1806:A 0.000232625
2 *1518:A1 0.000679669
3 *1910:Q 9.61178e-05
4 *855:8 0.00100841
5 *1518:A1 *1910:RESET_B 0
6 *1518:A1 *976:30 0
7 *1806:A *976:30 0
8 *855:8 *976:30 0
9 *1515:A1 *1806:A 0
10 *1516:A *1518:A1 0
11 *1517:B1 *1518:A1 0
12 *1910:D *1518:A1 4.8786e-05
13 *534:66 *1518:A1 0
*RES
1 *1910:Q *855:8 41.012 
2 *855:8 *1518:A1 45.7904 
3 *855:8 *1806:A 42.4464 
*END

*D_NET *856 0.00156661
*CONN
*I *1519:A I *D sg13g2_nand2_1
*I *1805:A I *D sg13g2_buf_1
*I *1911:Q O *D sg13g2_dfrbp_1
*CAP
1 *1519:A 0.000595827
2 *1805:A 0.000187477
3 *1911:Q 0.000783305
4 *1519:A *1908:CLK 0
5 *1515:A1 *1805:A 0
6 *1520:B1 *1519:A 0
7 *1911:D *1519:A 0
8 *83:10 *1519:A 0
*RES
1 *1911:Q *1805:A 41.8392 
2 *1911:Q *1519:A 45.72 
*END

*D_NET *857 0.0024874
*CONN
*P results[112] O
*I *2019:L_LO O *D sg13g2_tielo
*CAP
1 results[112] 0.00117951
2 *2019:L_LO 0.00117951
3 results[112] results[11] 0
4 results[112] results[74] 0
5 results[112] *868:12 0.00012839
6 results[112] *902:14 0
7 *849:10 results[112] 0
*RES
1 *2019:L_LO results[112] 49.988 
*END

*D_NET *858 0.00310025
*CONN
*P results[113] O
*I *2020:L_LO O *D sg13g2_tielo
*CAP
1 results[113] 0.00149239
2 *2020:L_LO 5.77365e-05
3 *858:8 0.00155012
4 results[113] results[124] 0
5 results[113] results[12] 0
6 *858:8 *869:8 0
7 *828:13 results[113] 0
*RES
1 *2020:L_LO *858:8 40.5104 
2 *858:8 results[113] 11.8712 
*END

*D_NET *859 0.0023284
*CONN
*P results[114] O
*I *2021:L_LO O *D sg13g2_tielo
*CAP
1 results[114] 0.0011642
2 *2021:L_LO 0.0011642
3 results[114] results[42] 0
4 results[114] results[95] 0
*RES
1 *2021:L_LO results[114] 48.5448 
*END

*D_NET *860 0.00180644
*CONN
*P results[115] O
*I *2022:L_LO O *D sg13g2_tielo
*CAP
1 results[115] 0.00090322
2 *2022:L_LO 0.00090322
3 results[115] results[80] 0
*RES
1 *2022:L_LO results[115] 29.5832 
*END

*D_NET *861 0.00291965
*CONN
*P results[116] O
*I *2023:L_LO O *D sg13g2_tielo
*CAP
1 results[116] 0.00145982
2 *2023:L_LO 0
3 *861:6 0.00145982
4 results[116] results[98] 0
5 results[116] *913:16 0
6 *833:9 results[116] 0
*RES
1 *2023:L_LO *861:6 40 
2 *861:6 results[116] 11.132 
*END

*D_NET *862 0.00356421
*CONN
*P results[117] O
*I *2024:L_LO O *D sg13g2_tielo
*CAP
1 results[117] 0.00112933
2 *2024:L_LO 0.000260623
3 *862:10 0.00138996
4 results[117] results[73] 0
5 *862:10 results[73] 0.000177861
6 results[0] results[117] 0
7 *843:10 *862:10 0
8 *849:10 *862:10 0.000606436
*RES
1 *2024:L_LO *862:10 42.8688 
2 *862:10 results[117] 8.1752 
*END

*D_NET *863 0.00250962
*CONN
*P results[118] O
*I *2025:L_LO O *D sg13g2_tielo
*CAP
1 results[118] 0.00121843
2 *2025:L_LO 3.63828e-05
3 *863:8 0.00125481
4 results[118] results[66] 0
5 *863:8 *880:8 0
6 *832:13 results[118] 0
7 *834:19 results[118] 0
*RES
1 *2025:L_LO *863:8 40.2992 
2 *863:8 results[118] 11.132 
*END

*D_NET *864 0.00419122
*CONN
*P results[119] O
*I *2026:L_LO O *D sg13g2_tielo
*CAP
1 results[119] 0.00108929
2 *2026:L_LO 0.000526321
3 *864:8 0.00161562
4 results[101] results[119] 0.000959987
5 results[10] results[119] 0
6 *835:9 *864:8 0
*RES
1 *2026:L_LO *864:8 45.1568 
2 *864:8 results[119] 30.956 
*END

*D_NET *865 0.002362
*CONN
*P results[11] O
*I *1934:L_LO O *D sg13g2_tielo
*CAP
1 results[11] 0.001181
2 *1934:L_LO 0.001181
3 results[11] results[122] 0
4 results[11] *902:14 0
5 results[112] results[11] 0
*RES
1 *1934:L_LO results[11] 48.5448 
*END

*D_NET *866 0.00441427
*CONN
*P results[120] O
*I *2027:L_LO O *D sg13g2_tielo
*CAP
1 results[120] 0.000880771
2 *2027:L_LO 0.000903581
3 *866:12 0.00178435
4 results[120] results[125] 0
5 results[120] results[34] 0
6 *866:12 results[55] 0.000765345
7 *866:12 results[82] 0
8 *866:12 *898:10 0
9 *866:12 *926:12 8.02189e-05
10 *866:12 *950:10 0
*RES
1 *2027:L_LO *866:12 47.656 
2 *866:12 results[120] 25.7464 
*END

*D_NET *867 0.00275553
*CONN
*P results[121] O
*I *2028:L_LO O *D sg13g2_tielo
*CAP
1 results[121] 0.00128736
2 *2028:L_LO 0.00128736
3 results[121] results[16] 0
4 results[121] results[39] 0
5 results[121] *878:10 0.000180816
*RES
1 *2028:L_LO results[121] 49.6888 
*END

*D_NET *868 0.00251055
*CONN
*P results[122] O
*I *2029:L_LO O *D sg13g2_tielo
*CAP
1 results[122] 0.00101068
2 *2029:L_LO 0.000180397
3 *868:12 0.00119108
4 results[122] results[38] 0
5 results[112] *868:12 0.00012839
6 results[11] results[122] 0
*RES
1 *2029:L_LO *868:12 41.716 
2 *868:12 results[122] 8.36 
*END

*D_NET *869 0.00381501
*CONN
*P results[123] O
*I *2030:L_LO O *D sg13g2_tielo
*CAP
1 results[123] 0.00140057
2 *2030:L_LO 6.34645e-05
3 *869:8 0.00146404
4 results[123] results[40] 0
5 *828:13 results[123] 0.000886935
6 *858:8 *869:8 0
*RES
1 *2030:L_LO *869:8 40.5104 
2 *869:8 results[123] 11.132 
*END

*D_NET *870 0.00233718
*CONN
*P results[124] O
*I *2031:L_LO O *D sg13g2_tielo
*CAP
1 results[124] 0.00116859
2 *2031:L_LO 0.00116859
3 results[124] results[12] 0
4 results[113] results[124] 0
*RES
1 *2031:L_LO results[124] 48.5448 
*END

*D_NET *871 0.00606609
*CONN
*P results[125] O
*I *2032:L_LO O *D sg13g2_tielo
*CAP
1 results[125] 0.00239566
2 *2032:L_LO 3.6622e-05
3 *871:8 0.00243228
4 results[125] results[34] 0
5 results[125] results[68] 0
6 results[125] results[86] 0
7 results[125] *884:10 0
8 results[125] *935:8 0.000664681
9 results[125] *940:8 0.00053684
10 results[125] *951:8 0
11 results[125] *954:10 0
12 results[120] results[125] 0
*RES
1 *2032:L_LO *871:8 40.2992 
2 *871:8 results[125] 39.404 
*END

*D_NET *872 0.00605067
*CONN
*P results[126] O
*I *2033:L_LO O *D sg13g2_tielo
*CAP
1 results[126] 0.0014795
2 *2033:L_LO 0.00111559
3 *872:10 0.00259509
4 results[126] results[21] 0
5 results[126] results[71] 0
6 results[126] results[81] 0
7 *872:10 *884:10 0
8 *872:10 *925:8 0.00086048
*RES
1 *2033:L_LO *872:10 49.2576 
2 *872:10 results[126] 30.1816 
*END

*D_NET *873 0.00349211
*CONN
*P results[127] O
*I *2034:L_LO O *D sg13g2_tielo
*CAP
1 results[127] 0.00095158
2 *2034:L_LO 0.000541631
3 *873:8 0.00149321
4 results[127] results[14] 0
5 *873:8 results[14] 0
6 *873:8 results[16] 0.000505689
7 *873:8 *1043:12 0
8 *827:13 results[127] 0
*RES
1 *2034:L_LO *873:8 45.632 
2 *873:8 results[127] 46.732 
*END

*D_NET *874 0.00172572
*CONN
*I *1804:A I *D sg13g2_buf_1
*I *1264:A I *D sg13g2_nand2_1
*I *1848:Q O *D sg13g2_dfrbp_1
*CAP
1 *1804:A 2.77263e-05
2 *1264:A 0.000551671
3 *1848:Q 0.00013953
4 *874:6 0.000718927
5 *1264:A *1088:10 0.000287864
6 *1848:D *1264:A 0
7 *1850:D *1264:A 0
*RES
1 *1848:Q *874:6 21.3816 
2 *874:6 *1264:A 25.852 
3 *874:6 *1804:A 20.2992 
*END

*D_NET *875 0.000887963
*CONN
*I *1803:A I *D sg13g2_buf_1
*I *1266:A I *D sg13g2_nand2_1
*I *1849:Q O *D sg13g2_dfrbp_1
*CAP
1 *1803:A 9.2286e-05
2 *1266:A 0
3 *1849:Q 0
4 *875:12 0.000351695
5 *875:4 0.000443981
6 *875:12 *981:28 0
7 *875:12 *1089:10 0
*RES
1 *1849:Q *875:4 20 
2 *875:4 *875:12 43.5816 
3 *875:12 *1266:A 20 
4 *875:4 *1803:A 20.968 
*END

*D_NET *876 0.00282851
*CONN
*I *1802:A I *D sg13g2_buf_1
*I *1268:A1 I *D sg13g2_mux2_1
*I *1850:Q O *D sg13g2_dfrbp_1
*CAP
1 *1802:A 0
2 *1268:A1 0.000623958
3 *1850:Q 0
4 *876:21 0.000675611
5 *876:4 0.00129957
6 *1268:A1 *1850:CLK 0.000181462
7 *1268:A1 *1088:10 0
8 *876:21 *1045:8 0
9 *1268:A0 *1268:A1 4.79124e-05
10 *1850:D *1268:A1 0
11 *827:13 *876:21 0
12 *828:13 *876:21 0
*RES
1 *1850:Q *876:4 20 
2 *876:4 *1268:A1 26.4856 
3 *876:4 *876:21 45.4824 
4 *876:21 *1802:A 20 
*END

*D_NET *877 0.00155345
*CONN
*I *1269:A I *D sg13g2_nand2_1
*I *1801:A I *D sg13g2_buf_1
*I *1851:Q O *D sg13g2_dfrbp_1
*CAP
1 *1269:A 0
2 *1801:A 0
3 *1851:Q 0.000392359
4 *877:22 0.000266507
5 *877:14 0.000384363
6 *877:10 0.000510215
7 *877:10 *981:41 0
8 *877:22 *981:41 0
*RES
1 *1851:Q *877:10 44.004 
2 *877:10 *877:14 21.144 
3 *877:14 *877:22 42.2616 
4 *877:22 *1801:A 20 
5 *877:14 *1269:A 20 
*END

*D_NET *878 0.00340482
*CONN
*P results[16] O
*I *1935:L_LO O *D sg13g2_tielo
*CAP
1 results[16] 0.00102647
2 *1935:L_LO 0.000332688
3 *878:10 0.00135916
4 results[16] results[14] 0
5 results[121] results[16] 0
6 results[121] *878:10 0.000180816
7 *830:11 results[16] 0
8 *849:10 *878:10 0
9 *873:8 results[16] 0.000505689
*RES
1 *1935:L_LO *878:10 42.684 
2 *878:10 results[16] 8.36 
*END

*D_NET *879 0.00286295
*CONN
*P results[17] O
*I *1936:L_LO O *D sg13g2_tielo
*CAP
1 results[17] 0.000745341
2 *1936:L_LO 0.000332003
3 *879:8 0.00107734
4 results[10] results[17] 0.000708267
5 *854:12 *879:8 0
*RES
1 *1936:L_LO *879:8 43.4144 
2 *879:8 results[17] 27.436 
*END

*D_NET *880 0.00383434
*CONN
*P results[18] O
*I *1937:L_LO O *D sg13g2_tielo
*CAP
1 results[18] 0.00157134
2 *1937:L_LO 0.000345832
3 *880:8 0.00191717
4 results[18] results[28] 0
5 results[18] results[62] 0
6 *880:8 *891:8 0
7 *834:19 results[18] 0
8 *863:8 *880:8 0
*RES
1 *1937:L_LO *880:8 43.256 
2 *880:8 results[18] 11.8712 
*END

*D_NET *881 0.00324177
*CONN
*P results[19] O
*I *1938:L_LO O *D sg13g2_tielo
*CAP
1 results[19] 0.00142733
2 *1938:L_LO 0.000193558
3 *881:10 0.00162089
4 results[19] results[15] 0
5 results[19] results[91] 0
6 results[19] *931:8 0
*RES
1 *1938:L_LO *881:10 41.8392 
2 *881:10 results[19] 11.6864 
*END

*D_NET *882 0.00155604
*CONN
*P results[1] O
*I *1924:L_LO O *D sg13g2_tielo
*CAP
1 results[1] 0.000778019
2 *1924:L_LO 0.000778019
3 results[1] results[24] 0
4 results[1] results[36] 0
*RES
1 *1924:L_LO results[1] 48.5448 
*END

*D_NET *883 0.00247776
*CONN
*P results[20] O
*I *1939:L_LO O *D sg13g2_tielo
*CAP
1 results[20] 0.00122783
2 *1939:L_LO 0.00122783
3 results[20] results[53] 2.20968e-05
4 results[20] results[98] 0
*RES
1 *1939:L_LO results[20] 49.0552 
*END

*D_NET *884 0.00629852
*CONN
*P results[21] O
*I *1940:L_LO O *D sg13g2_tielo
*CAP
1 results[21] 0.00142093
2 *1940:L_LO 0.00119309
3 *884:10 0.00261402
4 results[21] results[81] 0
5 *884:10 *935:8 0.000664681
6 *884:10 *940:8 0.000405791
7 results[125] *884:10 0
8 results[126] results[21] 0
9 *760:7 results[21] 0
10 *872:10 *884:10 0
*RES
1 *1940:L_LO *884:10 49.9968 
2 *884:10 results[21] 29.7592 
*END

*D_NET *885 0.00364937
*CONN
*P results[22] O
*I *1941:L_LO O *D sg13g2_tielo
*CAP
1 results[22] 0.000643841
2 *1941:L_LO 0.0005748
3 *885:10 0.00121864
4 results[22] results[43] 0
5 *885:10 results[65] 0
6 *885:10 *908:10 0.000503784
7 *764:11 results[22] 0
8 *851:10 results[22] 0.000708301
*RES
1 *1941:L_LO *885:10 45.6408 
2 *885:10 results[22] 25.896 
*END

*D_NET *886 0.00292879
*CONN
*P results[23] O
*I *1942:L_LO O *D sg13g2_tielo
*CAP
1 results[23] 0.000939115
2 *1942:L_LO 0.000185209
3 *886:10 0.00112432
4 results[23] results[75] 0
5 results[23] results[84] 0
6 *886:10 results[75] 0.000232798
7 *886:10 *892:10 0
8 *886:10 *937:10 0.000447339
9 *886:10 *953:10 0
*RES
1 *1942:L_LO *886:10 42.2352 
2 *886:10 results[23] 8.1752 
*END

*D_NET *887 0.00225716
*CONN
*P results[24] O
*I *1943:L_LO O *D sg13g2_tielo
*CAP
1 results[24] 0.00101385
2 *1943:L_LO 0.000114732
3 *887:8 0.00112858
4 results[24] results[33] 0
5 results[1] results[24] 0
*RES
1 *1943:L_LO *887:8 41.144 
2 *887:8 results[24] 11.132 
*END

*D_NET *888 0.00257581
*CONN
*P results[25] O
*I *1944:L_LO O *D sg13g2_tielo
*CAP
1 results[25] 0.00125032
2 *1944:L_LO 0.00125032
3 results[25] results[67] 0
4 results[25] results[73] 7.51688e-05
*RES
1 *1944:L_LO results[25] 49.2664 
*END

*D_NET *889 0.00329268
*CONN
*P results[26] O
*I *1945:L_LO O *D sg13g2_tielo
*CAP
1 results[26] 0.00102729
2 *1945:L_LO 5.60026e-05
3 *889:8 0.00108329
4 results[26] results[15] 0
5 results[26] *942:8 0.0011261
6 results[0] results[26] 0
*RES
1 *1945:L_LO *889:8 40.5104 
2 *889:8 results[26] 11.132 
*END

*D_NET *890 0.00319707
*CONN
*P results[27] O
*I *1946:L_LO O *D sg13g2_tielo
*CAP
1 results[27] 0.00159853
2 *1946:L_LO 0.00159853
3 results[27] results[41] 0
4 results[27] results[57] 0
5 results[27] results[80] 0
*RES
1 *1946:L_LO results[27] 31.6424 
*END

*D_NET *891 0.00336158
*CONN
*P results[28] O
*I *1947:L_LO O *D sg13g2_tielo
*CAP
1 results[28] 0.00147775
2 *1947:L_LO 0.000203047
3 *891:8 0.00168079
4 results[28] results[30] 0
5 results[28] results[62] 0
6 results[18] results[28] 0
7 *880:8 *891:8 0
*RES
1 *1947:L_LO *891:8 41.7776 
2 *891:8 results[28] 11.132 
*END

*D_NET *892 0.00339145
*CONN
*P results[29] O
*I *1948:L_LO O *D sg13g2_tielo
*CAP
1 results[29] 0.00112475
2 *1948:L_LO 0.00028573
3 *892:10 0.00141048
4 results[29] results[36] 0
5 results[29] results[99] 0
6 *892:10 results[49] 0.000229973
7 *892:10 *937:10 0.000340519
8 *886:10 *892:10 0
*RES
1 *1948:L_LO *892:10 42.6576 
2 *892:10 results[29] 8.1752 
*END

*D_NET *893 0.00476125
*CONN
*P results[2] O
*I *1925:L_LO O *D sg13g2_tielo
*CAP
1 results[2] 0.00155257
2 *1925:L_LO 0.000494546
3 *893:10 0.00204711
4 results[2] results[55] 0
5 results[2] results[5] 0
6 results[2] results[63] 0
7 *893:10 *925:8 0
8 *893:10 *939:10 0.000667024
9 *759:9 results[2] 0
10 *762:9 *893:10 0
*RES
1 *1925:L_LO *893:10 44.2944 
2 *893:10 results[2] 30.8152 
*END

*D_NET *894 0.00261222
*CONN
*P results[30] O
*I *1949:L_LO O *D sg13g2_tielo
*CAP
1 results[30] 0.00130611
2 *1949:L_LO 0
3 *894:6 0.00130611
4 results[30] results[60] 0
5 results[28] results[30] 0
*RES
1 *1949:L_LO *894:6 40 
2 *894:6 results[30] 11.132 
*END

*D_NET *895 0.00266565
*CONN
*P results[31] O
*I *1950:L_LO O *D sg13g2_tielo
*CAP
1 results[31] 0.00126809
2 *1950:L_LO 6.47374e-05
3 *895:8 0.00133283
4 results[31] results[13] 0
5 results[31] results[91] 0
6 results[31] *931:8 0
*RES
1 *1950:L_LO *895:8 40.5104 
2 *895:8 results[31] 11.132 
*END

*D_NET *896 0.00473587
*CONN
*P results[32] O
*I *1951:L_LO O *D sg13g2_tielo
*CAP
1 results[32] 0.0016697
2 *1951:L_LO 0.000243128
3 *896:8 0.00191282
4 results[32] results[59] 0
5 results[32] results[63] 0
6 results[32] results[68] 0
7 results[32] results[85] 0
8 *896:8 results[92] 0
9 *896:8 results[93] 0.000438815
10 *896:8 *939:10 0.000471409
*RES
1 *1951:L_LO *896:8 42.6752 
2 *896:8 results[32] 31.2376 
*END

*D_NET *897 0.00182595
*CONN
*P results[33] O
*I *1952:L_LO O *D sg13g2_tielo
*CAP
1 results[33] 0.000901924
2 *1952:L_LO 0.000901924
3 results[33] results[52] 0
4 results[33] *907:12 2.20968e-05
5 results[24] results[33] 0
*RES
1 *1952:L_LO results[33] 49.7768 
*END

*D_NET *898 0.00615605
*CONN
*P results[34] O
*I *1953:L_LO O *D sg13g2_tielo
*CAP
1 results[34] 0.000968317
2 *1953:L_LO 0.000942346
3 *898:10 0.00191066
4 results[34] results[86] 0
5 *898:10 *926:12 0.000394078
6 *898:10 *950:18 0.000499858
7 results[106] *898:10 0.00144079
8 results[120] results[34] 0
9 results[125] results[34] 0
10 *866:12 *898:10 0
*RES
1 *1953:L_LO *898:10 49.7856 
2 *898:10 results[34] 26.38 
*END

*D_NET *899 0.0021263
*CONN
*P results[35] O
*I *1954:L_LO O *D sg13g2_tielo
*CAP
1 results[35] 0.0010521
2 *1954:L_LO 0.0010521
3 results[35] results[49] 2.20968e-05
4 results[35] results[84] 0
*RES
1 *1954:L_LO results[35] 49.0552 
*END

*D_NET *900 0.0019356
*CONN
*P results[36] O
*I *1955:L_LO O *D sg13g2_tielo
*CAP
1 results[36] 0.0009678
2 *1955:L_LO 0.0009678
3 results[1] results[36] 0
4 results[29] results[36] 0
*RES
1 *1955:L_LO results[36] 48.5448 
*END

*D_NET *901 0.00456427
*CONN
*P results[37] O
*I *1956:L_LO O *D sg13g2_tielo
*CAP
1 results[37] 0.00128463
2 *1956:L_LO 0.000144013
3 *901:10 0.00142864
4 results[37] results[48] 0
5 results[37] results[7] 0
6 *901:10 *938:10 4.79124e-05
7 *901:10 *948:8 7.51291e-05
8 *830:15 results[37] 0.00158394
*RES
1 *1956:L_LO *901:10 41.4168 
2 *901:10 results[37] 10.9472 
*END

*D_NET *902 0.00307239
*CONN
*P results[38] O
*I *1957:L_LO O *D sg13g2_tielo
*CAP
1 results[38] 0.00015729
2 *1957:L_LO 0.000119331
3 *902:14 0.00141686
4 *902:8 0.0013789
5 results[38] results[90] 0
6 *902:14 *931:12 0
7 *902:14 *960:10 0
8 results[112] *902:14 0
9 results[11] *902:14 0
10 results[122] results[38] 0
11 *247:10 *902:14 0
12 *249:8 *902:14 0
*RES
1 *1957:L_LO *902:8 41.144 
2 *902:8 *902:14 31.924 
3 *902:14 results[38] 21.1528 
*END

*D_NET *903 0.00235023
*CONN
*P results[39] O
*I *1958:L_LO O *D sg13g2_tielo
*CAP
1 results[39] 0.00117511
2 *1958:L_LO 0.00117511
3 results[39] results[70] 0
4 results[121] results[39] 0
*RES
1 *1958:L_LO results[39] 48.5448 
*END

*D_NET *904 0.0044795
*CONN
*P results[3] O
*I *1926:L_LO O *D sg13g2_tielo
*CAP
1 results[3] 0.00121428
2 *1926:L_LO 0.000660579
3 *904:8 0.00187486
4 results[3] results[68] 0
5 results[3] results[85] 0
6 *904:8 *950:10 0
7 *904:8 *954:10 0
8 *758:9 *904:8 0
9 *759:9 *904:8 0.000729772
*RES
1 *1926:L_LO *904:8 46.0016 
2 *904:8 results[3] 27.8584 
*END

*D_NET *905 0.00387119
*CONN
*P results[40] O
*I *1959:L_LO O *D sg13g2_tielo
*CAP
1 results[40] 0.00140153
2 *1959:L_LO 9.09621e-05
3 *905:8 0.00149249
4 results[123] results[40] 0
5 *827:13 results[40] 0.000886206
*RES
1 *1959:L_LO *905:8 40.7216 
2 *905:8 results[40] 11.132 
*END

*D_NET *906 0.00306974
*CONN
*P results[41] O
*I *1960:L_LO O *D sg13g2_tielo
*CAP
1 results[41] 0.00112739
2 *1960:L_LO 0.00112739
3 results[41] results[57] 0
4 results[100] results[41] 0
5 results[103] results[41] 0.000814971
6 results[27] results[41] 0
*RES
1 *1960:L_LO results[41] 30.2872 
*END

*D_NET *907 0.00282963
*CONN
*P results[42] O
*I *1961:L_LO O *D sg13g2_tielo
*CAP
1 results[42] 0.00114213
2 *1961:L_LO 0.000197443
3 *907:12 0.00133957
4 results[42] results[52] 0
5 *907:12 results[52] 0.000128389
6 results[114] results[42] 0
7 results[33] *907:12 2.20968e-05
*RES
1 *1961:L_LO *907:12 42.1384 
2 *907:12 results[42] 8.36 
*END

*D_NET *908 0.00318993
*CONN
*P results[43] O
*I *1962:L_LO O *D sg13g2_tielo
*CAP
1 results[43] 0.000744695
2 *1962:L_LO 0.000598377
3 *908:10 0.00134307
4 *908:10 results[61] 0
5 results[107] results[43] 0
6 results[22] results[43] 0
7 *851:10 results[43] 0
8 *885:10 *908:10 0.000503784
*RES
1 *1962:L_LO *908:10 46.0104 
2 *908:10 results[43] 26.1072 
*END

*D_NET *909 0.00179228
*CONN
*I *1800:A I *D sg13g2_buf_1
*I *1356:A1 I *D sg13g2_mux2_1
*I *1868:Q O *D sg13g2_dfrbp_1
*CAP
1 *1800:A 0.000198066
2 *1356:A1 0.00067412
3 *1868:Q 0
4 *909:4 0.000872186
5 *1868:D *1356:A1 4.79124e-05
6 *186:63 *1356:A1 0
*RES
1 *1868:Q *909:4 20 
2 *909:4 *1356:A1 26.9432 
3 *909:4 *1800:A 21.9184 
*END

*D_NET *910 0.00167243
*CONN
*I *1799:A I *D sg13g2_buf_1
*I *1357:A1 I *D sg13g2_mux2_1
*I *1869:Q O *D sg13g2_dfrbp_1
*CAP
1 *1799:A 9.14896e-05
2 *1357:A1 0.000680418
3 *1869:Q 0
4 *910:4 0.000771908
5 *1357:A1 *1797:A 0
6 *1357:A1 *912:18 0
7 *1357:A1 *1038:8 0
8 *1357:S *1357:A1 0
9 *1869:CLK *1357:A1 0
10 *1869:D *1357:A1 0.000128618
*RES
1 *1869:Q *910:4 20 
2 *910:4 *1357:A1 26.8552 
3 *910:4 *1799:A 20.968 
*END

*D_NET *911 0.00225154
*CONN
*I *1798:A I *D sg13g2_buf_1
*I *1359:A I *D sg13g2_nand2_1
*I *1870:Q O *D sg13g2_dfrbp_1
*CAP
1 *1798:A 8.56254e-05
2 *1359:A 0.000644589
3 *1870:Q 0.000107273
4 *911:6 0.000837487
5 *1870:D *1359:A 0
6 *1873:CLK *1359:A 0
7 *186:50 *1359:A 0.000288281
8 *186:63 *1359:A 0
9 *386:10 *1359:A 0.000288281
*RES
1 *1870:Q *911:6 21.012 
2 *911:6 *1359:A 27.1192 
3 *911:6 *1798:A 20.968 
*END

*D_NET *912 0.00247624
*CONN
*I *1797:A I *D sg13g2_buf_1
*I *1361:A I *D sg13g2_nand2_1
*I *1871:Q O *D sg13g2_dfrbp_1
*CAP
1 *1797:A 0.000199988
2 *1361:A 0
3 *1871:Q 0
4 *912:18 0.000756422
5 *912:4 0.00095641
6 *1357:A0 *912:18 6.1871e-05
7 *1357:A1 *1797:A 0
8 *1357:A1 *912:18 0
9 *1357:S *912:18 9.0624e-05
10 *1869:CLK *912:18 0
11 *1871:CLK *912:18 0
12 *50:10 *912:18 0.000181799
13 *334:65 *912:18 0.000229125
*RES
1 *1871:Q *912:4 20 
2 *912:4 *912:18 47.436 
3 *912:18 *1361:A 20 
4 *912:4 *1797:A 22.024 
*END

*D_NET *913 0.00430176
*CONN
*P results[48] O
*I *1963:L_LO O *D sg13g2_tielo
*CAP
1 results[48] 0.000381868
2 *1963:L_LO 0.000944972
3 *913:16 0.00132684
4 results[48] results[53] 0
5 *913:16 results[53] 0.000582514
6 results[116] *913:16 0
7 results[37] results[48] 0
8 *830:15 results[48] 0.000178826
9 *830:15 *913:16 0.000886743
*RES
1 *1963:L_LO *913:16 49.2048 
2 *913:16 results[48] 3.0008 
*END

*D_NET *914 0.00273252
*CONN
*P results[49] O
*I *1964:L_LO O *D sg13g2_tielo
*CAP
1 results[49] 0.00124023
2 *1964:L_LO 0.00124023
3 results[49] results[6] 0
4 results[35] results[49] 2.20968e-05
5 *892:10 results[49] 0.000229973
*RES
1 *1964:L_LO results[49] 49.5656 
*END

*D_NET *915 0.00308148
*CONN
*P results[4] O
*I *1927:L_LO O *D sg13g2_tielo
*CAP
1 results[4] 0.000397028
2 *1927:L_LO 0.000833541
3 *915:10 0.00123057
4 results[4] results[88] 0
5 *915:10 *957:10 0.00014508
6 results[100] results[4] 0
7 *648:9 *915:10 0.000475265
*RES
1 *1927:L_LO *915:10 48.7824 
2 *915:10 results[4] 22.5784 
*END

*D_NET *916 0.00273332
*CONN
*P results[50] O
*I *1965:L_LO O *D sg13g2_tielo
*CAP
1 results[50] 0.00136666
2 *1965:L_LO 0.00136666
3 results[50] results[54] 0
4 results[50] results[94] 0
5 *849:10 results[50] 0
*RES
1 *1965:L_LO results[50] 49.988 
*END

*D_NET *917 0.00585861
*CONN
*P results[51] O
*I *1966:L_LO O *D sg13g2_tielo
*CAP
1 results[51] 0.00203251
2 *1966:L_LO 0.000896795
3 *917:10 0.0029293
4 results[51] results[71] 0
5 results[51] results[86] 0
6 *917:10 *930:8 0
7 *917:10 *955:10 0
8 *760:7 results[51] 0
9 *760:13 *917:10 0
10 *762:9 *917:10 0
*RES
1 *1966:L_LO *917:10 49.152 
2 *917:10 results[51] 33.772 
*END

*D_NET *918 0.00215891
*CONN
*P results[52] O
*I *1967:L_LO O *D sg13g2_tielo
*CAP
1 results[52] 0.00101526
2 *1967:L_LO 0.00101526
3 results[33] results[52] 0
4 results[42] results[52] 0
5 *907:12 results[52] 0.000128389
*RES
1 *1967:L_LO results[52] 49.0552 
*END

*D_NET *919 0.00303178
*CONN
*P results[53] O
*I *1968:L_LO O *D sg13g2_tielo
*CAP
1 results[53] 0.00121358
2 *1968:L_LO 0.00121358
3 results[20] results[53] 2.20968e-05
4 results[48] results[53] 0
5 *913:16 results[53] 0.000582514
*RES
1 *1968:L_LO results[53] 49.6536 
*END

*D_NET *920 0.0020524
*CONN
*P results[54] O
*I *1969:L_LO O *D sg13g2_tielo
*CAP
1 results[54] 0.0010262
2 *1969:L_LO 0.0010262
3 results[54] results[67] 0
4 results[54] *964:14 0
5 results[50] results[54] 0
*RES
1 *1969:L_LO results[54] 48.36 
*END

*D_NET *921 0.00396464
*CONN
*P results[55] O
*I *1970:L_LO O *D sg13g2_tielo
*CAP
1 results[55] 0.0012455
2 *1970:L_LO 0.0012455
3 results[55] results[5] 0.000708301
4 results[55] results[72] 0
5 results[55] results[82] 0
6 results[2] results[55] 0
7 *866:12 results[55] 0.000765345
*RES
1 *1970:L_LO results[55] 31.396 
*END

*D_NET *922 0.00283623
*CONN
*P results[56] O
*I *1971:L_LO O *D sg13g2_tielo
*CAP
1 results[56] 0.000824581
2 *1971:L_LO 0.000824581
3 results[56] results[97] 0
4 results[56] *967:10 0.00118706
5 *854:12 results[56] 0
*RES
1 *1971:L_LO results[56] 28.9144 
*END

*D_NET *923 0.00249561
*CONN
*P results[57] O
*I *1972:L_LO O *D sg13g2_tielo
*CAP
1 results[57] 0.00112045
2 *1972:L_LO 0.000127358
3 *923:8 0.00124781
4 results[27] results[57] 0
5 results[41] results[57] 0
*RES
1 *1972:L_LO *923:8 41.1968 
2 *923:8 results[57] 27.8584 
*END

*D_NET *924 0.00306118
*CONN
*P results[58] O
*I *1973:L_LO O *D sg13g2_tielo
*CAP
1 results[58] 0.00146585
2 *1973:L_LO 6.47374e-05
3 *924:8 0.00153059
4 results[58] results[12] 0
5 results[58] results[13] 0
6 results[58] results[87] 0
*RES
1 *1973:L_LO *924:8 40.5104 
2 *924:8 results[58] 11.132 
*END

*D_NET *925 0.00552404
*CONN
*P results[59] O
*I *1974:L_LO O *D sg13g2_tielo
*CAP
1 results[59] 0.00155655
2 *1974:L_LO 0.000631864
3 *925:8 0.00218842
4 results[59] results[63] 0
5 results[59] *950:18 0.000286729
6 *925:8 *939:10 0
7 *925:8 *940:8 0
8 results[32] results[59] 0
9 *872:10 *925:8 0.00086048
10 *893:10 *925:8 0
*RES
1 *1974:L_LO *925:8 45.632 
2 *925:8 results[59] 30.3928 
*END

*D_NET *926 0.00408804
*CONN
*P results[5] O
*I *1928:L_LO O *D sg13g2_tielo
*CAP
1 results[5] 0.000699848
2 *1928:L_LO 0.000752872
3 *926:12 0.00145272
4 results[2] results[5] 0
5 results[55] results[5] 0.000708301
6 *866:12 *926:12 8.02189e-05
7 *898:10 *926:12 0.000394078
*RES
1 *1928:L_LO *926:12 47.4976 
2 *926:12 results[5] 25.5352 
*END

*D_NET *927 0.00259393
*CONN
*P results[60] O
*I *1975:L_LO O *D sg13g2_tielo
*CAP
1 results[60] 0.000875991
2 *1975:L_LO 0.000356704
3 *927:10 0.0012327
4 results[60] results[75] 0
5 *927:10 *929:10 0
6 *927:10 *969:10 0
7 results[30] results[60] 0
8 *849:8 *927:10 0.000128539
*RES
1 *1975:L_LO *927:10 43.1064 
2 *927:10 results[60] 8.7296 
*END

*D_NET *928 0.00537287
*CONN
*P results[61] O
*I *1976:L_LO O *D sg13g2_tielo
*CAP
1 results[61] 0.00186426
2 *1976:L_LO 0
3 *928:6 0.00186426
4 results[104] results[61] 0.00164434
5 *1834:A results[61] 0
6 *761:9 results[61] 0
7 *908:10 results[61] 0
*RES
1 *1976:L_LO *928:6 40 
2 *928:6 results[61] 39.404 
*END

*D_NET *929 0.00312947
*CONN
*P results[62] O
*I *1977:L_LO O *D sg13g2_tielo
*CAP
1 results[62] 0.00114604
2 *1977:L_LO 0.000357179
3 *929:10 0.00150321
4 *929:10 results[66] 4.79124e-05
5 results[18] results[62] 0
6 results[28] results[62] 0
7 *849:8 *929:10 7.51291e-05
8 *849:10 *929:10 0
9 *927:10 *929:10 0
*RES
1 *1977:L_LO *929:10 42.684 
2 *929:10 results[62] 8.36 
*END

*D_NET *930 0.00500562
*CONN
*P results[63] O
*I *1978:L_LO O *D sg13g2_tielo
*CAP
1 results[63] 0.00171998
2 *1978:L_LO 0.000468971
3 *930:8 0.00218895
4 results[63] *950:18 0.00028702
5 *930:8 results[92] 0.00034071
6 *930:8 *939:10 0
7 *930:8 *955:10 0
8 results[2] results[63] 0
9 results[32] results[63] 0
10 results[59] results[63] 0
11 *759:9 results[63] 0
12 *917:10 *930:8 0
*RES
1 *1978:L_LO *930:8 44.5232 
2 *930:8 results[63] 32.0824 
*END

*D_NET *931 0.00611161
*CONN
*P results[64] O
*I *1979:L_LO O *D sg13g2_tielo
*CAP
1 results[64] 0.000300201
2 *1979:L_LO 0.00100529
3 *931:12 0.00205052
4 *931:8 0.0027556
5 results[64] results[90] 0
6 *931:8 results[15] 0
7 *931:8 results[91] 0
8 *931:12 results[74] 0
9 *931:12 results[90] 0
10 results[105] results[64] 0
11 results[19] *931:8 0
12 results[31] *931:8 0
13 *902:14 *931:12 0
*RES
1 *1979:L_LO *931:8 49.328 
2 *931:8 *931:12 33.3936 
3 *931:12 results[64] 22.6312 
*END

*D_NET *932 0.00259023
*CONN
*P results[65] O
*I *1980:L_LO O *D sg13g2_tielo
*CAP
1 results[65] 0.00104764
2 *1980:L_LO 0.000247482
3 *932:8 0.00129512
4 results[104] *932:8 0
5 results[107] results[65] 0
6 *885:10 results[65] 0
*RES
1 *1980:L_LO *932:8 42.6752 
2 *932:8 results[65] 30.1816 
*END

*D_NET *933 0.00250057
*CONN
*P results[66] O
*I *1981:L_LO O *D sg13g2_tielo
*CAP
1 results[66] 0.00122633
2 *1981:L_LO 0.00122633
3 results[118] results[66] 0
4 *832:13 results[66] 0
5 *849:10 results[66] 0
6 *929:10 results[66] 4.79124e-05
*RES
1 *1981:L_LO results[66] 49.3544 
*END

*D_NET *934 0.0020503
*CONN
*P results[67] O
*I *1982:L_LO O *D sg13g2_tielo
*CAP
1 results[67] 0.00102515
2 *1982:L_LO 0.00102515
3 results[67] *964:14 0
4 results[25] results[67] 0
5 results[54] results[67] 0
*RES
1 *1982:L_LO results[67] 48.5448 
*END

*D_NET *935 0.00488689
*CONN
*P results[68] O
*I *1983:L_LO O *D sg13g2_tielo
*CAP
1 results[68] 0.00142966
2 *1983:L_LO 0.000349103
3 *935:8 0.00177876
4 results[68] results[86] 0
5 results[125] results[68] 0
6 results[125] *935:8 0.000664681
7 results[32] results[68] 0
8 results[3] results[68] 0
9 *884:10 *935:8 0.000664681
*RES
1 *1983:L_LO *935:8 43.784 
2 *935:8 results[68] 29.548 
*END

*D_NET *936 0.00233718
*CONN
*P results[69] O
*I *1984:L_LO O *D sg13g2_tielo
*CAP
1 results[69] 0.00116859
2 *1984:L_LO 0.00116859
3 results[69] results[13] 0
4 results[69] results[87] 0
*RES
1 *1984:L_LO results[69] 48.5448 
*END

*D_NET *937 0.00488757
*CONN
*P results[6] O
*I *1929:L_LO O *D sg13g2_tielo
*CAP
1 results[6] 0.00110325
2 *1929:L_LO 0.000351142
3 *937:10 0.00145439
4 results[6] results[99] 0
5 *937:10 results[75] 0
6 *937:10 *953:10 0
7 *937:10 *969:10 0.00119092
8 results[49] results[6] 0
9 *886:10 *937:10 0.000447339
10 *892:10 *937:10 0.000340519
*RES
1 *1929:L_LO *937:10 45.3768 
2 *937:10 results[6] 7.9904 
*END

*D_NET *938 0.003056
*CONN
*P results[70] O
*I *1985:L_LO O *D sg13g2_tielo
*CAP
1 results[70] 0.00141227
2 *1985:L_LO 9.17761e-05
3 *938:10 0.00150404
4 results[70] results[7] 0
5 results[70] results[83] 0
6 results[39] results[70] 0
7 *901:10 *938:10 4.79124e-05
*RES
1 *1985:L_LO *938:10 40.9944 
2 *938:10 results[70] 10.9472 
*END

*D_NET *939 0.00660446
*CONN
*P results[71] O
*I *1986:L_LO O *D sg13g2_tielo
*CAP
1 results[71] 0.00167875
2 *1986:L_LO 0.00105427
3 *939:10 0.00273301
4 results[126] results[71] 0
5 results[51] results[71] 0
6 *893:10 *939:10 0.000667024
7 *896:8 *939:10 0.000471409
8 *925:8 *939:10 0
9 *930:8 *939:10 0
*RES
1 *1986:L_LO *939:10 49.8384 
2 *939:10 results[71] 31.0264 
*END

*D_NET *940 0.00495921
*CONN
*P results[72] O
*I *1987:L_LO O *D sg13g2_tielo
*CAP
1 results[72] 0.00116208
2 *1987:L_LO 0.00027857
3 *940:8 0.00144065
4 results[72] results[82] 0.00113528
5 results[125] *940:8 0.00053684
6 results[55] results[72] 0
7 *758:9 results[72] 0
8 *762:9 results[72] 0
9 *884:10 *940:8 0.000405791
10 *925:8 *940:8 0
*RES
1 *1987:L_LO *940:8 43.0448 
2 *940:8 results[72] 29.548 
*END

*D_NET *941 0.0028439
*CONN
*P results[73] O
*I *1988:L_LO O *D sg13g2_tielo
*CAP
1 results[73] 0.00129543
2 *1988:L_LO 0.00129543
3 results[117] results[73] 0
4 results[25] results[73] 7.51688e-05
5 *843:10 results[73] 0
6 *862:10 results[73] 0.000177861
*RES
1 *1988:L_LO results[73] 49.7768 
*END

*D_NET *942 0.00451614
*CONN
*P results[74] O
*I *1989:L_LO O *D sg13g2_tielo
*CAP
1 results[74] 0.00109681
2 *1989:L_LO 0.000598204
3 *942:8 0.00169502
4 results[74] results[94] 0
5 results[74] *964:14 0
6 results[0] *942:8 0
7 results[112] results[74] 0
8 results[26] *942:8 0.0011261
9 *931:12 results[74] 0
*RES
1 *1989:L_LO *942:8 46.3712 
2 *942:8 results[74] 48.052 
*END

*D_NET *943 0.00257641
*CONN
*P results[75] O
*I *1990:L_LO O *D sg13g2_tielo
*CAP
1 results[75] 0.00117181
2 *1990:L_LO 0.00117181
3 results[75] *953:10 0
4 results[23] results[75] 0
5 results[60] results[75] 0
6 *886:10 results[75] 0.000232798
7 *937:10 results[75] 0
*RES
1 *1990:L_LO results[75] 49.988 
*END

*D_NET *944 0.00198624
*CONN
*I *1796:A I *D sg13g2_buf_1
*I *1444:A1 I *D sg13g2_mux2_1
*I *1888:Q O *D sg13g2_dfrbp_1
*CAP
1 *1796:A 0
2 *1444:A1 0.000662824
3 *1888:Q 0.000929327
4 *944:22 0.000266503
5 *1444:A1 *1449:A1 0
6 *1444:A1 *1793:A 0
7 *1444:A1 *973:16 0
8 *1444:A1 *973:24 0
9 *1888:D *1444:A1 0.000127582
10 *1891:D *1444:A1 0
11 *831:11 *1444:A1 0
*RES
1 *1888:Q *1444:A1 46.8552 
2 *1888:Q *944:22 42.86 
3 *944:22 *1796:A 40 
*END

*D_NET *945 0.00172155
*CONN
*I *1445:A I *D sg13g2_nand2_1
*I *1795:A I *D sg13g2_buf_1
*I *1889:Q O *D sg13g2_dfrbp_1
*CAP
1 *1445:A 0.000767524
2 *1795:A 9.32514e-05
3 *1889:Q 0.000860776
4 *1445:A *1889:CLK 0
5 *1445:A *1033:16 0
6 *1795:A *1033:16 0
7 *467:12 *1445:A 0
8 *467:20 *1445:A 0
*RES
1 *1889:Q *1795:A 40.9944 
2 *1889:Q *1445:A 46.0368 
*END

*D_NET *946 0.0015324
*CONN
*I *1794:A I *D sg13g2_buf_1
*I *1447:A I *D sg13g2_nand2_1
*I *1890:Q O *D sg13g2_dfrbp_1
*CAP
1 *1794:A 0.000264847
2 *1447:A 0.000501356
3 *1890:Q 0
4 *946:6 0.000766202
5 *1447:A *1128:8 0
6 *1794:A results[77] 0
7 *1794:A *1130:10 0
*RES
1 *1890:Q *946:6 40 
2 *946:6 *1447:A 44.6376 
3 *946:6 *1794:A 42.816 
*END

*D_NET *947 0.00153321
*CONN
*I *1793:A I *D sg13g2_buf_1
*I *1449:A1 I *D sg13g2_mux2_1
*I *1891:Q O *D sg13g2_dfrbp_1
*CAP
1 *1793:A 8.60433e-05
2 *1449:A1 0.000590993
3 *1891:Q 2.52799e-05
4 *947:6 0.000702316
5 *1449:A1 *973:24 0.000128578
6 *1449:A1 *1131:14 0
7 *1444:A1 *1449:A1 0
8 *1444:A1 *1793:A 0
9 *1891:D *1449:A1 0
*RES
1 *1891:Q *947:6 20.2728 
2 *947:6 *1449:A1 26.2128 
3 *947:6 *1793:A 20.968 
*END

*D_NET *948 0.00308369
*CONN
*P results[7] O
*I *1930:L_LO O *D sg13g2_tielo
*CAP
1 results[7] 0.00147864
2 *1930:L_LO 2.56435e-05
3 *948:8 0.00150428
4 results[7] results[83] 0
5 results[37] results[7] 0
6 results[70] results[7] 0
7 *901:10 *948:8 7.51291e-05
*RES
1 *1930:L_LO *948:8 40.2992 
2 *948:8 results[7] 11.132 
*END

*D_NET *949 0.0024379
*CONN
*P results[80] O
*I *1991:L_LO O *D sg13g2_tielo
*CAP
1 results[80] 0.00121895
2 *1991:L_LO 0.00121895
3 results[115] results[80] 0
4 results[27] results[80] 0
*RES
1 *1991:L_LO results[80] 29.7944 
*END

*D_NET *950 0.00513149
*CONN
*P results[81] O
*I *1992:L_LO O *D sg13g2_tielo
*CAP
1 results[81] 0.000945632
2 *1992:L_LO 0.000344331
3 *950:18 0.00159392
4 *950:10 0.000992617
5 *950:10 results[82] 0.000181383
6 results[106] *950:10 0
7 results[126] results[81] 0
8 results[21] results[81] 0
9 results[59] *950:18 0.000286729
10 results[63] *950:18 0.00028702
11 *866:12 *950:10 0
12 *898:10 *950:18 0.000499858
13 *904:8 *950:10 0
*RES
1 *1992:L_LO *950:10 42.8424 
2 *950:10 *950:18 45.852 
3 *950:18 results[81] 26.1688 
*END

*D_NET *951 0.00479563
*CONN
*P results[82] O
*I *1993:L_LO O *D sg13g2_tielo
*CAP
1 results[82] 0.00104857
2 *1993:L_LO 0.000690918
3 *951:8 0.00173949
4 *951:8 *954:10 0
5 results[125] *951:8 0
6 results[55] results[82] 0
7 results[72] results[82] 0.00113528
8 *759:9 *951:8 0
9 *866:12 results[82] 0
10 *950:10 results[82] 0.000181383
*RES
1 *1993:L_LO *951:8 45.8168 
2 *951:8 results[82] 29.064 
*END

*D_NET *952 0.00234743
*CONN
*P results[83] O
*I *1994:L_LO O *D sg13g2_tielo
*CAP
1 results[83] 0.00117371
2 *1994:L_LO 0.00117371
3 results[70] results[83] 0
4 results[7] results[83] 0
*RES
1 *1994:L_LO results[83] 48.5448 
*END

*D_NET *953 0.00202504
*CONN
*P results[84] O
*I *1995:L_LO O *D sg13g2_tielo
*CAP
1 results[84] 0.000814761
2 *1995:L_LO 0.000197761
3 *953:10 0.00101252
4 results[23] results[84] 0
5 results[35] results[84] 0
6 results[75] *953:10 0
7 *886:10 *953:10 0
8 *937:10 *953:10 0
*RES
1 *1995:L_LO *953:10 41.628 
2 *953:10 results[84] 8.7296 
*END

*D_NET *954 0.00470159
*CONN
*P results[85] O
*I *1996:L_LO O *D sg13g2_tielo
*CAP
1 results[85] 0.00127227
2 *1996:L_LO 0.000713509
3 *954:10 0.00198578
4 results[125] *954:10 0
5 results[32] results[85] 0
6 results[3] results[85] 0
7 *759:9 *954:10 0.000730026
8 *904:8 *954:10 0
9 *951:8 *954:10 0
*RES
1 *1996:L_LO *954:10 46.1424 
2 *954:10 results[85] 28.2808 
*END

*D_NET *955 0.0049443
*CONN
*P results[86] O
*I *1997:L_LO O *D sg13g2_tielo
*CAP
1 results[86] 0.00179867
2 *1997:L_LO 0.000609584
3 *955:10 0.00240826
4 *955:10 *963:10 0.000127783
5 results[125] results[86] 0
6 results[34] results[86] 0
7 results[51] results[86] 0
8 results[68] results[86] 0
9 *762:9 *955:10 0
10 *917:10 *955:10 0
11 *930:8 *955:10 0
*RES
1 *1997:L_LO *955:10 45.7728 
2 *955:10 results[86] 32.5048 
*END

*D_NET *956 0.00247273
*CONN
*P results[87] O
*I *1998:L_LO O *D sg13g2_tielo
*CAP
1 results[87] 0.00123636
2 *1998:L_LO 0.00123636
3 results[58] results[87] 0
4 results[69] results[87] 0
*RES
1 *1998:L_LO results[87] 49.0552 
*END

*D_NET *957 0.00327303
*CONN
*P results[88] O
*I *1999:L_LO O *D sg13g2_tielo
*CAP
1 results[88] 0.000426113
2 *1999:L_LO 0.000490996
3 *957:10 0.000917109
4 results[100] *957:10 0.00129373
5 results[103] results[88] 0
6 results[4] results[88] 0
7 *915:10 *957:10 0.00014508
*RES
1 *1999:L_LO *957:10 46.3536 
2 *957:10 results[88] 22.7896 
*END

*D_NET *958 0.00445201
*CONN
*P results[89] O
*I *2000:L_LO O *D sg13g2_tielo
*CAP
1 results[89] 0.000354973
2 *2000:L_LO 0.000829674
3 *958:10 0.00118465
4 results[101] results[89] 0
5 results[101] *958:10 0.000895304
6 results[10] results[89] 0
7 *845:10 *958:10 0.00118742
*RES
1 *2000:L_LO *958:10 49.9968 
2 *958:10 results[89] 22.7896 
*END

*D_NET *959 0.00368437
*CONN
*P results[8] O
*I *1931:L_LO O *D sg13g2_tielo
*CAP
1 results[8] 0.00139856
2 *1931:L_LO 0
3 *959:6 0.00139856
4 *832:13 results[8] 0.000887249
5 *833:9 results[8] 0
*RES
1 *1931:L_LO *959:6 40 
2 *959:6 results[8] 11.132 
*END

*D_NET *960 0.00383719
*CONN
*P results[90] O
*I *2001:L_LO O *D sg13g2_tielo
*CAP
1 results[90] 0.000954279
2 *2001:L_LO 0.000964315
3 *960:10 0.00191859
4 results[38] results[90] 0
5 results[64] results[90] 0
6 *1248:A *960:10 0
7 *902:14 *960:10 0
8 *931:12 results[90] 0
*RES
1 *2001:L_LO *960:10 48.7296 
2 *960:10 results[90] 47.3128 
*END

*D_NET *961 0.00169017
*CONN
*P results[91] O
*I *2002:L_LO O *D sg13g2_tielo
*CAP
1 results[91] 0.000845086
2 *2002:L_LO 0.000845086
3 results[19] results[91] 0
4 results[31] results[91] 0
5 *931:8 results[91] 0
*RES
1 *2002:L_LO results[91] 48.5448 
*END

*D_NET *962 0.0025205
*CONN
*P results[92] O
*I *2003:L_LO O *D sg13g2_tielo
*CAP
1 results[92] 0.00105233
2 *2003:L_LO 0.00105233
3 results[92] results[93] 0
4 results[92] *963:10 7.51291e-05
5 *896:8 results[92] 0
6 *930:8 results[92] 0.00034071
*RES
1 *2003:L_LO results[92] 48.844 
*END

*D_NET *963 0.00331869
*CONN
*P results[93] O
*I *2004:L_LO O *D sg13g2_tielo
*CAP
1 results[93] 0.00105844
2 *2004:L_LO 0.00028004
3 *963:10 0.00133848
4 results[92] results[93] 0
5 results[92] *963:10 7.51291e-05
6 *762:9 *963:10 0
7 *896:8 results[93] 0.000438815
8 *955:10 *963:10 0.000127783
*RES
1 *2004:L_LO *963:10 42.684 
2 *963:10 results[93] 8.36 
*END

*D_NET *964 0.00319014
*CONN
*P results[94] O
*I *2005:L_LO O *D sg13g2_tielo
*CAP
1 results[94] 0.000261504
2 *2005:L_LO 0.000134289
3 *964:14 0.00146078
4 *964:8 0.00133356
5 results[50] results[94] 0
6 results[54] *964:14 0
7 results[67] *964:14 0
8 results[74] results[94] 0
9 results[74] *964:14 0
*RES
1 *2005:L_LO *964:8 41.3552 
2 *964:8 *964:14 31.1056 
3 *964:14 results[94] 21.892 
*END

*D_NET *965 0.00205973
*CONN
*P results[95] O
*I *2006:L_LO O *D sg13g2_tielo
*CAP
1 results[95] 0.00102987
2 *2006:L_LO 0.00102987
3 results[114] results[95] 0
*RES
1 *2006:L_LO results[95] 49.0552 
*END

*D_NET *966 0.00155604
*CONN
*P results[96] O
*I *2007:L_LO O *D sg13g2_tielo
*CAP
1 results[96] 0.000778019
2 *2007:L_LO 0.000778019
*RES
1 *2007:L_LO results[96] 48.5448 
*END

*D_NET *967 0.00311098
*CONN
*P results[97] O
*I *2008:L_LO O *D sg13g2_tielo
*CAP
1 results[97] 0.000327112
2 *2008:L_LO 0.000384379
3 *967:10 0.000711491
4 results[56] results[97] 0
5 results[56] *967:10 0.00118706
6 *854:12 *967:10 0.000500937
*RES
1 *2008:L_LO *967:10 45.5616 
2 *967:10 results[97] 22.7896 
*END

*D_NET *968 0.00233998
*CONN
*P results[98] O
*I *2009:L_LO O *D sg13g2_tielo
*CAP
1 results[98] 0.00116999
2 *2009:L_LO 0.00116999
3 results[116] results[98] 0
4 results[20] results[98] 0
*RES
1 *2009:L_LO results[98] 48.5448 
*END

*D_NET *969 0.00464442
*CONN
*P results[99] O
*I *2010:L_LO O *D sg13g2_tielo
*CAP
1 results[99] 0.00108939
2 *2010:L_LO 0.000637357
3 *969:10 0.00172675
4 results[29] results[99] 0
5 results[6] results[99] 0
6 *849:8 *969:10 0
7 *927:10 *969:10 0
8 *937:10 *969:10 0.00119092
*RES
1 *2010:L_LO *969:10 47.04 
2 *969:10 results[99] 7.8056 
*END

*D_NET *970 0.00241831
*CONN
*P results[9] O
*I *1932:L_LO O *D sg13g2_tielo
*CAP
1 results[9] 0.00120916
2 *1932:L_LO 0
3 *970:6 0.00120916
4 results[102] results[9] 0
*RES
1 *1932:L_LO *970:6 40 
2 *970:6 results[9] 11.132 
*END

*D_NET *971 0.000611564
*CONN
*I *1792:A I *D sg13g2_buf_1
*I *1728:X O *D sg13g2_or4_1
*CAP
1 *1792:A 0.000305782
2 *1728:X 0.000305782
3 *1728:A *1792:A 0
4 *664:32 *1792:A 0
5 *696:8 *1792:A 0
*RES
1 *1728:X *1792:A 43.1856 
*END

*D_NET *972 0.00663494
*CONN
*I *1865:CLK I *D sg13g2_dfrbp_1
*I *1886:CLK I *D sg13g2_dfrbp_1
*I *1887:CLK I *D sg13g2_dfrbp_1
*I *1885:CLK I *D sg13g2_dfrbp_1
*I *1893:CLK I *D sg13g2_dfrbp_1
*I *1731:X O *D sg13g2_buf_16
*CAP
1 *1865:CLK 0.000735593
2 *1886:CLK 8.52929e-05
3 *1887:CLK 0
4 *1885:CLK 0
5 *1893:CLK 0.000354032
6 *1731:X 0.000830307
7 *972:45 0.00104328
8 *972:36 0.000348291
9 *972:22 0.000507873
10 *972:9 0.00156632
11 *1865:CLK *1105:8 0
12 *972:9 *1033:16 0
13 *972:22 *1033:10 0
14 *972:36 *1127:10 0
15 *972:45 *1126:12 0
16 *972:45 *1127:10 0
17 *1442:C *972:9 4.79124e-05
18 *1442:A *972:9 0.000447904
19 *1627:B *1893:CLK 0
20 *1635:B_N *1865:CLK 0
21 *1640:C *1886:CLK 0
22 *1675:A1 *972:22 0
23 *1865:D *1865:CLK 0.000233457
24 *1886:D *1886:CLK 0.000181383
25 *10:10 *1893:CLK 0
26 *10:10 *972:9 0
27 *10:42 *972:22 0
28 *62:10 *972:22 0.000177897
29 *462:10 *1893:CLK 0
30 *462:10 *972:9 0
31 *463:46 *972:9 7.53965e-05
32 *466:61 *1865:CLK 0
33 *467:12 *972:9 0
34 *684:29 *1865:CLK 0
35 *685:10 *972:45 0
36 *685:30 *972:45 0
*RES
1 *1731:X *972:9 7.1368 
2 *972:9 *1893:CLK 22.6224 
3 *972:9 *972:22 44.8928 
4 *972:22 *1885:CLK 20 
5 *1731:X *972:36 41.1968 
6 *972:36 *1887:CLK 40 
7 *972:36 *972:45 2.1208 
8 *972:45 *1886:CLK 40.9944 
9 *972:45 *1865:CLK 47.4888 
*END

*D_NET *973 0.0089343
*CONN
*I *1889:CLK I *D sg13g2_dfrbp_1
*I *1890:CLK I *D sg13g2_dfrbp_1
*I *1897:CLK I *D sg13g2_dfrbp_1
*I *1888:CLK I *D sg13g2_dfrbp_1
*I *1891:CLK I *D sg13g2_dfrbp_1
*I *1732:X O *D sg13g2_buf_16
*CAP
1 *1889:CLK 0.000290509
2 *1890:CLK 0.000194005
3 *1897:CLK 0
4 *1888:CLK 0
5 *1891:CLK 0
6 *1732:X 0
7 *973:42 0.00138096
8 *973:24 0.000227386
9 *973:16 0.00113975
10 *973:8 0.00246673
11 *973:6 0.000526769
12 *973:4 0.000449869
13 *1890:CLK *1732:A 0
14 *973:24 *1131:14 4.78029e-05
15 *1431:A *973:42 0.000341085
16 *1433:A *973:42 0.000101874
17 *1436:A *973:16 0
18 *1444:A0 *973:16 0
19 *1444:A1 *973:16 0
20 *1444:A1 *973:24 0
21 *1444:S *973:16 0
22 *1445:A *1889:CLK 0
23 *1447:B *973:16 0
24 *1448:A1 *973:42 7.51291e-05
25 *1448:A2 *973:42 0
26 *1449:A1 *973:24 0.000128578
27 *1658:A *973:42 0
28 *1890:D *1890:CLK 0
29 *19:10 *973:42 2.20968e-05
30 *426:46 *973:42 0
31 *426:55 *973:42 0
32 *426:70 *973:42 0
33 *446:10 *973:42 0.000764784
34 *459:10 *973:42 0
35 *467:35 *973:6 0.000194748
36 *467:35 *973:8 0.00032611
37 *467:35 *973:16 4.77421e-05
38 *467:43 *973:16 7.99842e-05
39 *689:58 *973:42 0.000128389
40 *831:11 *973:16 0
41 *831:11 *973:42 0
42 *831:25 *973:42 0
*RES
1 *1732:X *973:4 20 
2 *973:4 *973:6 1.7512 
3 *973:6 *973:8 1.936 
4 *973:8 *973:16 26.2568 
5 *973:16 *973:24 42.4464 
6 *973:24 *1891:CLK 20 
7 *973:16 *1888:CLK 20 
8 *973:8 *973:42 33.1208 
9 *973:42 *1897:CLK 20 
10 *973:6 *1890:CLK 41.8392 
11 *973:4 *1889:CLK 42.7104 
*END

*D_NET *974 0.00855462
*CONN
*I *1895:CLK I *D sg13g2_dfrbp_1
*I *1894:CLK I *D sg13g2_dfrbp_1
*I *1883:CLK I *D sg13g2_dfrbp_1
*I *1892:CLK I *D sg13g2_dfrbp_1
*I *1884:CLK I *D sg13g2_dfrbp_1
*I *1733:X O *D sg13g2_buf_16
*CAP
1 *1895:CLK 0.000236658
2 *1894:CLK 0
3 *1883:CLK 0
4 *1892:CLK 0.000874218
5 *1884:CLK 0.00016749
6 *1733:X 0.00024685
7 *974:56 0.000699109
8 *974:27 0.00140033
9 *974:15 0.0011824
10 *974:5 0.00153308
11 *1895:CLK *992:101 0
12 *1895:CLK *1027:14 0
13 *974:5 *984:66 0
14 *974:15 *984:66 0
15 *974:15 *991:26 0
16 *974:15 *991:28 0
17 *974:15 *991:71 0.000106065
18 *974:27 *1883:RESET_B 0
19 *974:27 *985:75 0
20 *974:27 *991:71 2.20968e-05
21 *974:56 *991:28 0
22 *974:56 *992:101 0
23 *1170:B *1884:CLK 4.78023e-05
24 *1170:B *1892:CLK 0.000275621
25 *1170:B *974:27 0.000288053
26 *1181:A2 *1892:CLK 0
27 *1810:A *1892:CLK 0
28 *1883:D *974:27 0
29 *1884:D *974:27 0
30 *1895:D *1895:CLK 0.000181422
31 *209:12 *974:15 0.000569641
32 *209:12 *974:27 0
33 *464:12 *974:27 0
34 *648:13 *1892:CLK 0
35 *664:26 *974:5 0
36 *664:26 *974:15 0
37 *664:32 *974:56 0
38 *694:21 *1892:CLK 0.000227879
39 *827:13 *1895:CLK 0.000187717
40 *827:13 *974:56 0.000308195
41 *828:13 *1895:CLK 0
*RES
1 *1733:X *974:5 2.156 
2 *974:5 *974:15 47.128 
3 *974:15 *974:27 23.6652 
4 *974:27 *1884:CLK 41.7512 
5 *974:27 *1892:CLK 47.7528 
6 *974:15 *1883:CLK 20 
7 *974:5 *974:56 24.8928 
8 *974:56 *1894:CLK 40 
9 *974:56 *1895:CLK 42.5872 
*END

*D_NET *975 0.00852701
*CONN
*I *1896:CLK I *D sg13g2_dfrbp_1
*I *1898:CLK I *D sg13g2_dfrbp_1
*I *1900:CLK I *D sg13g2_dfrbp_1
*I *1899:CLK I *D sg13g2_dfrbp_1
*I *1901:CLK I *D sg13g2_dfrbp_1
*I *1734:X O *D sg13g2_buf_16
*CAP
1 *1896:CLK 3.64311e-05
2 *1898:CLK 0
3 *1900:CLK 0
4 *1899:CLK 2.55566e-05
5 *1901:CLK 0.000321923
6 *1734:X 0.000400988
7 *975:62 0.000359539
8 *975:54 0.000879314
9 *975:26 0.000935223
10 *975:16 0.00188069
11 *975:10 0.00121059
12 *1901:CLK *1141:8 0
13 *975:10 *1020:12 0
14 *975:10 *1027:98 0
15 *975:10 *1057:10 0
16 *975:16 *1013:10 0.000240662
17 *975:16 *1020:20 0
18 *975:16 *1031:32 0
19 *975:16 *1057:10 0
20 *975:26 *1013:10 0.000177361
21 *975:54 *1670:A 2.20968e-05
22 *975:54 *992:23 0
23 *975:54 *992:33 0
24 *975:54 *1027:22 0.00103254
25 *975:54 *1027:48 0
26 *975:62 *1667:A 0
27 *975:62 *1140:10 0
28 *1419:A *1896:CLK 0
29 *1419:C *975:10 0
30 *1419:C *975:16 0
31 *1653:A *1896:CLK 0
32 *1653:A *975:16 0
33 *1661:A *975:16 0
34 *1672:A2 *975:26 7.51291e-05
35 *1899:D *1899:CLK 7.51688e-05
36 *76:10 *1901:CLK 0
37 *76:10 *975:26 0.000234604
38 *686:14 *975:10 0
39 *690:10 *975:54 7.53965e-05
40 *827:13 *975:62 0
41 *830:15 *975:26 0
42 *832:13 *1901:CLK 0
43 *832:25 *975:54 0
44 *834:19 *1901:CLK 0
45 *834:19 *975:26 0.000543797
*RES
1 *1734:X *975:10 23.432 
2 *975:10 *975:16 7.0664 
3 *975:16 *975:26 45.8872 
4 *975:26 *1901:CLK 42.904 
5 *975:26 *1899:CLK 40.2992 
6 *975:16 *975:54 25.6408 
7 *975:54 *975:62 41.6016 
8 *975:62 *1900:CLK 20 
9 *975:54 *1898:CLK 20 
10 *975:10 *1896:CLK 40.2992 
*END

*D_NET *976 0.00859148
*CONN
*I *1908:CLK I *D sg13g2_dfrbp_1
*I *1911:CLK I *D sg13g2_dfrbp_1
*I *1917:CLK I *D sg13g2_dfrbp_1
*I *1910:CLK I *D sg13g2_dfrbp_1
*I *1909:CLK I *D sg13g2_dfrbp_1
*I *1735:X O *D sg13g2_buf_16
*CAP
1 *1908:CLK 0.000302494
2 *1911:CLK 0
3 *1917:CLK 0
4 *1910:CLK 0
5 *1909:CLK 5.60176e-05
6 *1735:X 0.000186164
7 *976:49 0.000475966
8 *976:42 0.00115607
9 *976:30 0.00224601
10 *976:19 0.00111438
11 *976:6 0.000440093
12 *1908:CLK results[109] 0
13 *1909:CLK *984:122 0
14 *976:19 *1149:8 0
15 *976:30 results[109] 0
16 *976:49 results[109] 0
17 *1478:A0 *976:42 0.000189523
18 *1478:A1 *976:42 7.51291e-05
19 *1479:B *976:42 0
20 *1481:B1 *976:42 0
21 *1481:A1 *976:42 0
22 *1482:A1 *976:42 0
23 *1482:B1 *976:42 7.53575e-05
24 *1484:B *976:42 0
25 *1486:B1 *976:42 0
26 *1506:B1 *976:42 0
27 *1506:A2 *976:42 0
28 *1515:A0 *976:42 0.000234415
29 *1516:A *1909:CLK 0
30 *1516:A *976:30 0
31 *1518:A1 *976:30 0
32 *1519:A *1908:CLK 0
33 *1806:A *976:30 0
34 *1807:A *976:30 0
35 *1911:D *976:42 0
36 *11:8 *976:42 0
37 *83:10 *1908:CLK 0.000210538
38 *83:10 *976:49 0.000245037
39 *84:8 *976:19 0
40 *203:10 *976:6 0
41 *498:35 *976:42 0
42 *499:10 *976:42 0.000500182
43 *534:66 *976:30 0
44 *704:32 *976:42 0
45 *705:10 *976:42 0.00108411
46 *853:10 *976:30 0
47 *855:8 *976:30 0
*RES
1 *1735:X *976:6 21.936 
2 *976:6 *1909:CLK 40.5104 
3 *976:6 *976:19 21.936 
4 *976:19 *1910:CLK 20 
5 *976:19 *976:30 27.6032 
6 *976:30 *976:42 32.6368 
7 *976:42 *1917:CLK 20 
8 *976:30 *976:49 1.5664 
9 *976:49 *1911:CLK 40 
10 *976:49 *1908:CLK 42.7984 
*END

*D_NET *977 0.00824162
*CONN
*I *1922:CLK I *D sg13g2_dfrbp_1
*I *1907:CLK I *D sg13g2_dfrbp_1
*I *1920:CLK I *D sg13g2_dfrbp_1
*I *1913:CLK I *D sg13g2_dfrbp_1
*I *1906:CLK I *D sg13g2_dfrbp_1
*I *1736:X O *D sg13g2_buf_16
*CAP
1 *1922:CLK 0.000973379
2 *1907:CLK 0
3 *1920:CLK 0.000341444
4 *1913:CLK 0.000957248
5 *1906:CLK 0
6 *1736:X 0.000694446
7 *977:59 0.00118853
8 *977:26 0.00157841
9 *977:8 0.000199578
10 *1913:CLK *1687:B 0.000128161
11 *1913:CLK *990:46 0
12 *1913:CLK *1023:14 0.000473249
13 *1913:CLK *1023:61 0.000208088
14 *1920:CLK *1721:A 0
15 *1920:CLK *1748:A 0
16 *1920:CLK *984:128 0
17 *1920:CLK *989:10 0
18 *1920:CLK *1160:8 0
19 *1922:CLK *986:38 0
20 *1922:CLK *986:49 0
21 *1922:CLK *1147:12 0
22 *1187:A *1913:CLK 0.000128161
23 *1512:B *977:8 0
24 *1677:A *1920:CLK 0
25 *1677:A *977:26 9.70851e-05
26 *1690:A *1913:CLK 0
27 *1691:A *977:26 0
28 *1691:B *977:26 7.51684e-05
29 *1692:A2 *1913:CLK 7.89572e-05
30 *1692:A2 *977:26 0
31 *1694:C *1913:CLK 0
32 *1694:C *1922:CLK 0
33 *1726:A *1922:CLK 0
34 *1727:B1 *1922:CLK 0
35 *1782:A *1913:CLK 0.000140032
36 *1907:D *1922:CLK 0.000658804
37 *1913:D *1913:CLK 0
38 *1922:D *1922:CLK 0
39 *167:14 *1920:CLK 0
40 *175:10 *1913:CLK 0
41 *178:12 *977:26 0.000111296
42 *179:12 *1913:CLK 0
43 *200:10 *1920:CLK 0
44 *203:10 *1922:CLK 0
45 *222:10 *1913:CLK 0
46 *528:6 *1913:CLK 0
47 *529:10 *977:59 0
48 *529:14 *977:59 0
49 *700:14 *977:8 0
50 *700:31 *977:26 0.000209582
51 *701:10 *1922:CLK 0
*RES
1 *1736:X *977:8 41.5664 
2 *977:8 *1906:CLK 20 
3 *1736:X *977:26 42.772 
4 *977:26 *1913:CLK 49.2136 
5 *977:26 *1920:CLK 43.1592 
6 *1736:X *977:59 41.936 
7 *977:59 *1907:CLK 20 
8 *977:59 *1922:CLK 29.482 
*END

*D_NET *978 0.0100784
*CONN
*I *1918:CLK I *D sg13g2_dfrbp_1
*I *1919:CLK I *D sg13g2_dfrbp_1
*I *1921:CLK I *D sg13g2_dfrbp_1
*I *1916:CLK I *D sg13g2_dfrbp_1
*I *1915:CLK I *D sg13g2_dfrbp_1
*I *1737:X O *D sg13g2_buf_16
*CAP
1 *1918:CLK 8.79376e-05
2 *1919:CLK 7.56534e-05
3 *1921:CLK 0
4 *1916:CLK 0.000301261
5 *1915:CLK 0
6 *1737:X 0.000338063
7 *978:60 0.000134607
8 *978:54 0.000961759
9 *978:39 0.00153046
10 *978:30 0.000829408
11 *978:20 0.00164231
12 *978:10 0.00042314
13 *978:8 0.000338063
14 *1916:CLK *1028:96 0
15 *1918:CLK *1709:A 0.000234455
16 *978:8 *1028:33 0
17 *978:8 *1028:42 0
18 *978:8 *1028:55 0
19 *978:20 *1709:A 0.000101779
20 *978:30 *1155:8 0.000177868
21 *978:39 *1707:C 0
22 *978:39 *1024:48 0.000144766
23 *1700:C *978:20 0
24 *1715:A1 *1918:CLK 0
25 *1839:A *1918:CLK 0
26 *1839:A *978:20 0.000462983
27 *1839:A *978:30 0.000925284
28 *1916:D *1916:CLK 0.000391986
29 *1918:D *1918:CLK 5.30323e-05
30 *1918:D *978:20 2.20968e-05
31 *1919:D *1919:CLK 0
32 *1919:D *978:54 0
33 *89:10 *978:39 0
34 *91:10 *978:8 0.000243221
35 *94:10 *978:54 0
36 *94:10 *978:60 0
37 *168:23 *978:8 0
38 *479:10 *978:20 0
39 *702:8 *978:20 0.000106065
40 *702:8 *978:30 0.000181194
41 *704:8 *978:39 0
42 *740:13 *978:39 0.000371027
43 *742:17 *978:20 0
44 *743:17 *978:20 0
45 *743:17 *978:30 0
*RES
1 *1737:X *978:8 43.2296 
2 *978:8 *978:10 20 
3 *978:10 *978:20 3.9776 
4 *978:20 *978:30 47.3128 
5 *978:30 *1915:CLK 20 
6 *978:20 *978:39 24.3384 
7 *978:39 *1916:CLK 43.256 
8 *978:39 *978:54 27.8584 
9 *978:54 *978:60 41.3816 
10 *978:60 *1921:CLK 20 
11 *978:54 *1919:CLK 20.7832 
12 *978:10 *1918:CLK 21.2056 
*END

*D_NET *979 0.00774598
*CONN
*I *1912:CLK I *D sg13g2_dfrbp_1
*I *1905:CLK I *D sg13g2_dfrbp_1
*I *1914:CLK I *D sg13g2_dfrbp_1
*I *1904:CLK I *D sg13g2_dfrbp_1
*I *1903:CLK I *D sg13g2_dfrbp_1
*I *1738:X O *D sg13g2_buf_16
*CAP
1 *1912:CLK 0
2 *1905:CLK 0
3 *1914:CLK 0
4 *1904:CLK 4.50399e-05
5 *1903:CLK 0
6 *1738:X 0.0007645
7 *979:66 0.000372498
8 *979:48 0.000741997
9 *979:33 0.00100445
10 *979:22 0.00112334
11 *979:10 0.00126814
12 *979:8 0.00149921
13 *979:8 *990:56 0
14 *979:8 *1032:35 0
15 *979:10 *1145:10 0
16 *979:22 *1143:8 0
17 *979:33 *1143:8 0
18 *979:33 *1144:8 0
19 *979:48 *1686:B1 0
20 *979:48 *990:77 0
21 *979:48 *1083:10 0
22 *979:48 *1144:8 0.000341124
23 *979:48 *1154:8 0
24 *979:48 *1155:8 0
25 *979:66 *1152:8 0
26 *1511:B *979:66 0
27 *1678:A1 *979:8 0
28 *1689:A *979:66 0
29 *1690:B *979:10 0
30 *1809:A *979:22 0
31 *1903:D *979:22 0
32 *1903:D *979:33 0
33 *1903:D *979:48 0
34 *1904:D *1904:CLK 0.000128161
35 *1904:D *979:48 0.000181572
36 *1905:D *979:10 0
37 *1905:D *979:22 0
38 *168:8 *979:8 0
39 *168:23 *979:8 0
40 *176:8 *979:8 0
41 *222:10 *979:8 0.000275935
42 *531:10 *979:66 0
43 *699:10 *979:8 0
44 *699:10 *979:66 0
*RES
1 *1738:X *979:8 45.2624 
2 *979:8 *979:10 3.6784 
3 *979:10 *979:22 29.6272 
4 *979:22 *1903:CLK 40 
5 *979:22 *979:33 21.936 
6 *979:33 *1904:CLK 20.5104 
7 *979:33 *979:48 47.8848 
8 *979:48 *1914:CLK 20 
9 *979:10 *1905:CLK 20 
10 *979:8 *979:66 43.7664 
11 *979:66 *1912:CLK 20 
*END

*D_NET *980 0.00637616
*CONN
*I *1862:CLK I *D sg13g2_dfrbp_1
*I *1846:CLK I *D sg13g2_dfrbp_1
*I *1847:CLK I *D sg13g2_dfrbp_1
*I *1845:CLK I *D sg13g2_dfrbp_1
*I *1853:CLK I *D sg13g2_dfrbp_1
*I *1739:X O *D sg13g2_buf_16
*CAP
1 *1862:CLK 0.000358423
2 *1846:CLK 0.000214289
3 *1847:CLK 0
4 *1845:CLK 0
5 *1853:CLK 0.000748296
6 *1739:X 0.00121755
7 *980:49 0.00035698
8 *980:10 0.00146474
9 *1846:CLK *1086:10 0.00026016
10 *1853:CLK *1524:B 0
11 *1853:CLK *993:57 0.00108486
12 *1862:CLK *1739:A 1.54556e-05
13 *1862:CLK *984:16 0
14 *1862:CLK *984:31 0
15 *980:10 *984:31 0
16 *980:49 *1086:10 0.000276634
17 *980:49 *1087:12 0.00024404
18 *1176:A *1853:CLK 2.20968e-05
19 *1529:A *1853:CLK 1.54556e-05
20 *1535:B *980:10 0
21 *1571:A1 *1862:CLK 0
22 *1845:D *1853:CLK 0
23 *1845:D *980:10 7.508e-05
24 *41:10 *1862:CLK 0
25 *214:22 *1853:CLK 0
26 *231:48 *1853:CLK 2.20968e-05
27 *232:10 *1862:CLK 0
28 *651:8 *980:10 0
29 *651:12 *1853:CLK 0
30 *651:12 *980:10 0
31 *652:47 *1846:CLK 0
32 *652:47 *980:49 0
*RES
1 *1739:X *980:10 25.5176 
2 *980:10 *1853:CLK 28.0652 
3 *980:10 *1845:CLK 20 
4 *1739:X *980:49 21.5664 
5 *980:49 *1847:CLK 40 
6 *980:49 *1846:CLK 41.8656 
7 *1739:X *1862:CLK 23.7092 
*END

*D_NET *981 0.00829246
*CONN
*I *1851:CLK I *D sg13g2_dfrbp_1
*I *1848:CLK I *D sg13g2_dfrbp_1
*I *1850:CLK I *D sg13g2_dfrbp_1
*I *1849:CLK I *D sg13g2_dfrbp_1
*I *1860:CLK I *D sg13g2_dfrbp_1
*I *1740:X O *D sg13g2_buf_16
*CAP
1 *1851:CLK 2.91056e-05
2 *1848:CLK 0
3 *1850:CLK 0.000459846
4 *1849:CLK 0
5 *1860:CLK 0.00176193
6 *1740:X 0.00233188
7 *981:41 0.00101194
8 *981:39 0.000874084
9 *981:28 0.000862847
10 *1850:CLK results[15] 0
11 *1850:CLK *1088:10 0.000341437
12 *1860:CLK *984:31 0
13 *1860:CLK *994:93 0
14 *1860:CLK *1021:8 0
15 *1860:CLK *1021:63 0
16 *1860:CLK *1029:20 0
17 *981:28 *1087:12 0
18 *981:28 *1089:10 0
19 *981:41 results[15] 0
20 *981:41 *1088:10 4.81157e-05
21 *1267:B1 *981:39 0
22 *1268:A1 *1850:CLK 0.000181462
23 *1522:A1 *1860:CLK 0
24 *1522:B1 *1860:CLK 0
25 *1530:A0 *1860:CLK 0
26 *1531:B *1860:CLK 0
27 *1566:A2 *1860:CLK 7.51291e-05
28 *1780:A *1860:CLK 0
29 *32:8 *981:41 0
30 *227:20 *1860:CLK 0
31 *230:12 *1860:CLK 0
32 *230:18 *1860:CLK 0
33 *230:28 *1860:CLK 0
34 *232:10 *1860:CLK 0
35 *232:10 *981:28 0
36 *232:14 *981:28 0
37 *232:20 *981:28 0
38 *232:37 *981:28 0
39 *232:93 *981:41 8.00835e-05
40 *297:8 *1850:CLK 0
41 *539:8 *1860:CLK 0
42 *652:47 *981:28 0
43 *660:10 *1860:CLK 0.000234604
44 *875:12 *981:28 0
45 *877:10 *981:41 0
46 *877:22 *981:41 0
*RES
1 *1740:X *1860:CLK 36.3592 
2 *1740:X *981:28 45.7816 
3 *981:28 *1849:CLK 20 
4 *981:28 *981:39 22.9216 
5 *981:39 *981:41 5.2624 
6 *981:41 *1850:CLK 44.5936 
7 *981:41 *1848:CLK 40 
8 *981:39 *1851:CLK 40.2992 
*END

*D_NET *982 0.00974443
*CONN
*I *1857:CLK I *D sg13g2_dfrbp_1
*I *1844:CLK I *D sg13g2_dfrbp_1
*I *1852:CLK I *D sg13g2_dfrbp_1
*I *1843:CLK I *D sg13g2_dfrbp_1
*I *1854:CLK I *D sg13g2_dfrbp_1
*I *1741:X O *D sg13g2_buf_16
*CAP
1 *1857:CLK 0
2 *1844:CLK 0
3 *1852:CLK 0
4 *1843:CLK 0.000215573
5 *1854:CLK 0.000694851
6 *1741:X 0.00214704
7 *982:73 0.00100646
8 *982:51 0.000576848
9 *982:43 0.000992987
10 *982:24 0.00107743
11 *1854:CLK *1025:16 0
12 *1854:CLK *1025:24 0
13 *1854:CLK *1029:30 0
14 *982:24 *993:26 0
15 *982:24 *993:32 0.000227879
16 *982:24 *993:34 0.000276634
17 *982:43 *993:16 0.000210819
18 *982:43 *993:26 0.000181572
19 *982:51 *993:10 0.000128161
20 *982:51 *993:16 0
21 *982:73 *1180:A2 0
22 *982:73 *1524:B 0
23 *982:73 *1741:A 0
24 *982:73 *993:57 0
25 *982:73 *1021:10 0
26 *982:73 *1021:57 0
27 *982:73 *1029:12 0
28 *982:73 *1029:20 8.00835e-05
29 *1528:A1 *982:43 0
30 *1545:A2 *1854:CLK 0
31 *1566:A1 *1854:CLK 0
32 *1780:A *982:73 0
33 *1843:D *1843:CLK 0.000767042
34 *1843:D *982:43 0.000341046
35 *1844:D *982:43 0.000128161
36 *1852:D *982:51 0.000394118
37 *1853:D *982:73 2.20968e-05
38 *24:8 *982:24 0
39 *25:10 *982:43 0
40 *205:22 *982:51 0.000275621
41 *215:14 *982:51 0
42 *648:13 *982:51 0
43 *654:10 *1854:CLK 0
44 *765:7 *1854:CLK 0
*RES
1 *1741:X *1854:CLK 46.2304 
2 *1741:X *982:24 44.8928 
3 *982:24 *1843:CLK 23.0448 
4 *982:24 *982:43 44.7872 
5 *982:43 *982:51 45.8256 
6 *982:51 *1852:CLK 20 
7 *982:43 *1844:CLK 20 
8 *1741:X *982:73 49.0552 
9 *982:73 *1857:CLK 20 
*END

*D_NET *983 0.00908431
*CONN
*I *1861:CLK I *D sg13g2_dfrbp_1
*I *1859:CLK I *D sg13g2_dfrbp_1
*I *1858:CLK I *D sg13g2_dfrbp_1
*I *1856:CLK I *D sg13g2_dfrbp_1
*I *1855:CLK I *D sg13g2_dfrbp_1
*I *1742:X O *D sg13g2_buf_16
*CAP
1 *1861:CLK 0
2 *1859:CLK 0.000420156
3 *1858:CLK 0
4 *1856:CLK 0
5 *1855:CLK 0.000621965
6 *1742:X 0.000587835
7 *983:51 0.0011118
8 *983:33 0.000511713
9 *983:25 0.000869011
10 *983:23 0.00185258
11 *983:10 0.00201344
12 *1855:CLK *1563:A 0
13 *1855:CLK *994:20 0
14 *1855:CLK *994:30 0
15 *1855:CLK *1021:63 0
16 *983:10 *1180:A2 0
17 *983:10 *994:93 0
18 *983:10 *1021:63 0
19 *983:10 *1029:76 0
20 *983:10 *1100:10 0
21 *983:23 *1021:65 0
22 *983:25 *1557:B 0
23 *983:25 *1557:C 0
24 *983:33 *1557:C 0
25 *983:51 *1559:B 0
26 *983:51 *1561:B1 0.00034032
27 *983:51 *1068:10 0.000210135
28 *1209:A *1855:CLK 0
29 *1209:B *983:23 0.00034157
30 *1209:C *983:10 0
31 *1209:C *983:23 0
32 *1548:A2 *1855:CLK 0
33 *1557:A *983:25 0
34 *1557:A *983:51 0
35 *1558:A1 *983:25 0
36 *1558:A2 *983:25 0
37 *1855:D *1855:CLK 0
38 *1856:D *983:33 0.000128389
39 *1859:D *1859:CLK 7.53965e-05
40 *38:8 *1859:CLK 0
41 *38:8 *983:51 0
42 *40:8 *983:51 0
43 *656:23 *983:51 0
44 *658:23 *983:51 0
45 *760:13 *983:23 0
46 *765:11 *983:10 0
47 *765:11 *983:23 0
*RES
1 *1742:X *983:10 45.2448 
2 *983:10 *1855:CLK 25.7904 
3 *983:10 *983:23 46.7408 
4 *983:23 *983:25 3.0448 
5 *983:25 *983:33 45.4032 
6 *983:33 *1856:CLK 20 
7 *983:25 *1858:CLK 20 
8 *983:23 *983:51 26.1248 
9 *983:51 *1859:CLK 44.7212 
10 *983:51 *1861:CLK 40 
*END

*D_NET *984 0.0418105
*CONN
*I *1701:A I *D sg13g2_buf_16
*I *1698:A I *D sg13g2_buf_16
*I *1710:A I *D sg13g2_buf_16
*I *1719:A I *D sg13g2_buf_16
*I *1735:A I *D sg13g2_buf_16
*I *1736:A I *D sg13g2_buf_16
*I *1737:A I *D sg13g2_buf_16
*I *1738:A I *D sg13g2_buf_16
*I *1732:A I *D sg13g2_buf_16
*I *1731:A I *D sg13g2_buf_16
*I *1734:A I *D sg13g2_buf_16
*I *1733:A I *D sg13g2_buf_16
*I *1739:A I *D sg13g2_buf_16
*I *1741:A I *D sg13g2_buf_16
*I *1742:A I *D sg13g2_buf_16
*I *1740:A I *D sg13g2_buf_16
*I *1743:X O *D sg13g2_buf_8
*CAP
1 *1701:A 0
2 *1698:A 2.52799e-05
3 *1710:A 0
4 *1719:A 2.52799e-05
5 *1735:A 2.53951e-05
6 *1736:A 0
7 *1737:A 0.000223107
8 *1738:A 0.000134021
9 *1732:A 0.00123961
10 *1731:A 0
11 *1734:A 0.000357349
12 *1733:A 2.61084e-05
13 *1739:A 2.51595e-05
14 *1741:A 7.37364e-05
15 *1742:A 0.000222685
16 *1740:A 0.000108797
17 *1743:X 0
18 *984:207 0.000916097
19 *984:192 0.0024169
20 *984:179 0.00194186
21 *984:166 0.00139278
22 *984:152 0.000365002
23 *984:128 0.00135401
24 *984:122 0.00193664
25 *984:120 0.00116722
26 *984:118 0.00248484
27 *984:100 0.000244591
28 *984:94 0.00227161
29 *984:77 0.00145136
30 *984:66 0.00136247
31 *984:33 0.000296421
32 *984:31 0.00220214
33 *984:18 0.00235309
34 *984:16 0.00094348
35 *984:10 0.00297799
36 *984:6 0.00208868
37 *1734:A *1137:8 0
38 *1737:A *1717:B 0
39 *1737:A *1024:10 0.000210477
40 *1737:A *1024:91 0.000130125
41 *1738:A *1720:A 0.000101645
42 *1738:A *1023:25 0.000128161
43 *1738:A *1024:16 0
44 *1738:A *1028:14 0
45 *1741:A *1180:A2 0
46 *1742:A *1029:24 0
47 *984:10 *1170:A 0
48 *984:10 *985:86 0
49 *984:10 *991:24 0
50 *984:10 *991:26 0
51 *984:10 *991:28 0
52 *984:10 *1142:10 0
53 *984:31 *993:57 0
54 *984:66 *1020:8 0
55 *984:66 *1020:135 0
56 *984:77 *1656:A 0
57 *984:77 *1020:135 0
58 *984:94 *1126:12 0
59 *984:94 *1127:10 0
60 *984:118 *985:86 0
61 *984:118 *986:49 0
62 *984:118 *1142:10 0
63 *984:120 *1351:A 0.000128351
64 *984:128 *989:10 0
65 *984:128 *1023:14 0
66 *984:128 *1023:33 0
67 *984:128 *1024:10 8.01437e-05
68 *984:152 *1147:12 0.000306848
69 *984:166 *1596:B1 0
70 *984:166 *1597:A 0
71 *984:166 *1746:A 0.000139843
72 *984:166 *987:10 6.76233e-05
73 *984:166 *987:25 8.29298e-05
74 *984:179 *1596:B1 0
75 *984:179 *1026:50 0
76 *984:179 *1026:52 0
77 *984:192 *1603:A 0
78 *984:192 *1605:B 0
79 *984:192 *1605:C 0.000766288
80 *984:192 *1026:50 0
81 *984:207 *1110:8 0
82 *1175:A1 *984:66 0
83 *1175:A1 *984:77 0
84 *1309:B_N *984:192 0
85 *1310:A *984:179 0.000390912
86 *1310:A *984:192 8.07102e-05
87 *1311:B *984:192 0
88 *1313:A *984:192 0
89 *1313:B *984:192 0
90 *1314:B1 *984:192 0
91 *1351:B *984:118 0.00034157
92 *1351:B *984:120 7.51291e-05
93 *1356:S *984:207 0
94 *1522:B1 *984:31 0
95 *1564:B *984:31 0
96 *1566:A2 *1742:A 0
97 *1566:A2 *984:31 0
98 *1598:B *984:166 0
99 *1598:B *984:179 0
100 *1598:A *984:179 0.000269543
101 *1599:A1 *984:166 0
102 *1599:A2 *984:166 0
103 *1605:A *984:192 0.000464575
104 *1631:A1 *984:66 0
105 *1658:C *1733:A 0
106 *1658:C *984:66 0
107 *1658:C *984:77 0
108 *1658:A *984:77 0.00062401
109 *1658:A *984:94 0
110 *1677:A *984:128 0.000181422
111 *1677:B *984:128 0.000128578
112 *1678:A2 *1738:A 0
113 *1678:A2 *984:128 0.000818904
114 *1727:B1 *1735:A 0
115 *1727:B1 *984:120 0
116 *1727:B1 *984:122 0
117 *1727:A1 *984:120 9.90074e-05
118 *1787:A *984:128 0.000340896
119 *1815:A *1734:A 0
120 *1845:D *984:31 0.000335263
121 *1860:CLK *984:31 0
122 *1862:CLK *1739:A 1.54556e-05
123 *1862:CLK *984:16 0
124 *1862:CLK *984:31 0
125 *1890:CLK *1732:A 0
126 *1909:CLK *984:122 0
127 *1920:CLK *984:128 0
128 *41:10 *984:16 0
129 *41:10 *984:18 0
130 *52:10 *984:166 0.000128389
131 *77:8 *984:10 0
132 *113:10 *984:192 0.000872352
133 *167:14 *984:128 0
134 *183:12 *984:192 0
135 *183:37 *984:192 0
136 *183:61 *984:192 0
137 *183:61 *984:207 0
138 *186:63 *984:207 0
139 *198:38 *984:118 0
140 *209:27 *984:66 0
141 *219:10 *984:166 0
142 *230:18 *984:31 0
143 *231:25 *984:31 0.000961243
144 *232:10 *984:31 0
145 *338:8 *984:192 0
146 *343:10 *984:192 0
147 *343:10 *984:207 0
148 *377:10 *984:207 0
149 *380:10 *984:166 0
150 *426:70 *984:100 0
151 *458:10 *984:94 0
152 *467:35 *1732:A 0
153 *528:6 *984:128 0
154 *534:12 *984:122 0
155 *534:12 *984:128 0
156 *534:12 *984:152 0
157 *534:29 *984:152 0
158 *539:8 *984:31 0
159 *544:10 *984:31 7.36615e-05
160 *575:23 *984:179 0.000234604
161 *652:47 *984:16 0
162 *652:47 *984:18 0
163 *653:8 *984:16 0
164 *664:26 *984:66 0
165 *673:10 *984:192 0
166 *678:22 *984:118 0.000502995
167 *701:14 *984:128 7.51684e-05
168 *708:10 *984:128 0
169 *853:10 *984:120 0
170 *974:5 *984:66 0
171 *974:15 *984:66 0
172 *980:10 *984:31 0
173 *982:73 *1741:A 0
*RES
1 *1743:X *984:6 40 
2 *984:6 *984:10 30.0672 
3 *984:10 *984:16 28.7296 
4 *984:16 *984:18 0.4576 
5 *984:18 *1740:A 41.012 
6 *984:18 *984:31 36.5616 
7 *984:31 *984:33 20 
8 *984:33 *1742:A 42.244 
9 *984:33 *1741:A 40.6424 
10 *984:16 *1739:A 40.2728 
11 *984:10 *984:66 8.9584 
12 *984:66 *1733:A 20.2728 
13 *984:66 *984:77 23.6784 
14 *984:77 *1734:A 43.5992 
15 *984:77 *984:94 27.788 
16 *984:94 *984:100 42.6752 
17 *984:100 *1731:A 20 
18 *984:94 *1732:A 29.152 
19 *984:6 *984:118 30.0672 
20 *984:118 *984:120 6.2128 
21 *984:120 *984:122 5.7904 
22 *984:122 *984:128 30.7624 
23 *984:128 *1738:A 41.5664 
24 *984:128 *1737:A 41.936 
25 *984:122 *984:152 43.5992 
26 *984:152 *1736:A 20 
27 *984:120 *1735:A 20.2728 
28 *984:118 *984:166 8.3248 
29 *984:166 *1719:A 20.2728 
30 *984:166 *984:179 24.796 
31 *984:179 *1710:A 40 
32 *984:179 *984:192 34.3528 
33 *984:192 *1698:A 20.2728 
34 *984:192 *984:207 48.1752 
35 *984:207 *1701:A 20 
*END

*D_NET *985 0.014064
*CONN
*I *1351:A I *D sg13g2_and2_1
*I *1183:A I *D sg13g2_nand2_1
*I *1170:A I *D sg13g2_nand2_1
*I *1164:A I *D sg13g2_inv_2
*I *1188:B I *D sg13g2_nand2_1
*I *1681:B I *D sg13g2_and2_1
*I *1177:A I *D sg13g2_nand2_1
*I *1195:A I *D sg13g2_and2_1
*I *1744:X O *D sg13g2_buf_4
*CAP
1 *1351:A 0.000324715
2 *1183:A 0.000171471
3 *1170:A 0.000149439
4 *1164:A 0
5 *1188:B 0
6 *1681:B 4.53155e-05
7 *1177:A 0
8 *1195:A 0
9 *1744:X 0
10 *985:86 0.00177232
11 *985:75 0.00161973
12 *985:54 4.53155e-05
13 *985:50 0.000683224
14 *985:40 0.00139468
15 *985:24 0.000424902
16 *985:16 0.000616093
17 *985:14 0.00224942
18 *985:4 0.00154093
19 *985:14 *991:20 0.00113982
20 *985:40 *1050:10 0
21 *985:50 *1748:A 0
22 *985:50 *986:10 0
23 *985:50 *990:6 0
24 *985:75 *991:20 0.000553781
25 *1170:B *1170:A 0
26 *1195:B *985:24 0
27 *1351:B *1351:A 0
28 *1528:A2 *985:24 0
29 *1681:A *1681:B 0.000234455
30 *1809:A *985:50 0
31 *1810:A *985:14 7.51688e-05
32 *1810:A *985:16 0.000660372
33 *219:10 *1183:A 0
34 *532:12 *1681:B 0.000234455
35 *650:10 *985:24 0
36 *678:22 *1351:A 0
37 *678:22 *985:86 0
38 *694:21 *985:86 0
39 *710:6 *985:50 0
40 *710:25 *985:40 0
41 *710:25 *985:50 0
42 *712:29 *1183:A 0
43 *974:27 *985:75 0
44 *984:10 *1170:A 0
45 *984:10 *985:86 0
46 *984:118 *985:86 0
47 *984:120 *1351:A 0.000128351
*RES
1 *1744:X *985:4 20 
2 *985:4 *985:14 15.3032 
3 *985:14 *985:16 2.6224 
4 *985:16 *985:24 43.5552 
5 *985:24 *1195:A 20 
6 *985:16 *1177:A 20 
7 *985:14 *985:40 46.7408 
8 *985:40 *985:50 45.7024 
9 *985:50 *985:54 40 
10 *985:54 *1681:B 20.9328 
11 *985:54 *1188:B 20 
12 *985:40 *1164:A 20 
13 *985:4 *985:75 22.4112 
14 *985:75 *1170:A 41.3816 
15 *985:75 *985:86 11.9152 
16 *985:86 *1183:A 41.2056 
17 *985:86 *1351:A 43.0008 
*END

*D_NET *986 0.00949182
*CONN
*I *1746:A I *D sg13g2_buf_2
*I *1747:A I *D sg13g2_buf_2
*I *1748:A I *D sg13g2_buf_1
*I *1749:A I *D sg13g2_buf_2
*I *1745:X O *D sg13g2_buf_2
*CAP
1 *1746:A 3.31761e-05
2 *1747:A 0
3 *1748:A 0.000568982
4 *1749:A 1.85871e-05
5 *1745:X 0
6 *986:49 0.000979147
7 *986:38 0.00150489
8 *986:10 0.00161785
9 *986:4 0.0015892
10 *1746:A *987:10 0.000113327
11 *1748:A *1687:B 4.66158e-05
12 *1748:A *990:46 0
13 *1748:A *1023:61 4.66137e-05
14 *986:10 *1146:10 0
15 *986:38 *988:14 0
16 *986:38 *988:21 0.000103443
17 *986:49 *988:21 0.000450488
18 *986:49 *988:38 0.00156404
19 *1192:A1 *986:38 0.00021075
20 *1512:B *1748:A 0
21 *1512:B *986:10 0
22 *1692:A2 *1748:A 0
23 *1726:A *986:49 0
24 *1906:D *1749:A 8.68109e-05
25 *1920:CLK *1748:A 0
26 *1922:CLK *986:38 0
27 *1922:CLK *986:49 0
28 *167:14 *1748:A 0
29 *179:12 *1748:A 0.000337978
30 *205:36 *986:10 0
31 *205:36 *986:38 0
32 *223:8 *1748:A 0
33 *380:10 *986:49 8.00835e-05
34 *532:27 *1748:A 0
35 *712:29 *986:49 0
36 *984:118 *986:49 0
37 *984:166 *1746:A 0.000139843
38 *985:50 *1748:A 0
39 *985:50 *986:10 0
*RES
1 *1745:X *986:4 20 
2 *986:4 *986:10 29.8384 
3 *986:10 *1749:A 40.3454 
4 *986:10 *1748:A 45.0776 
5 *986:4 *986:38 45.3394 
6 *986:38 *1747:A 20 
7 *986:38 *986:49 31.4158 
8 *986:49 *1746:A 40.5566 
*END

*D_NET *987 0.00940632
*CONN
*I *1596:B1 I *D sg13g2_a21oi_1
*I *1602:B1 I *D sg13g2_a21oi_1
*I *1613:B1 I *D sg13g2_a21oi_1
*I *1620:B1 I *D sg13g2_a21oi_1
*I *1617:B1 I *D sg13g2_a21oi_1
*I *1609:B1 I *D sg13g2_a21oi_1
*I *1599:B1 I *D sg13g2_a21oi_1
*I *1746:X O *D sg13g2_buf_2
*CAP
1 *1596:B1 0.000803383
2 *1602:B1 0.000350882
3 *1613:B1 0
4 *1620:B1 0
5 *1617:B1 6.87648e-05
6 *1609:B1 1.98129e-05
7 *1599:B1 0
8 *1746:X 0.000161487
9 *987:75 0.000387952
10 *987:56 0.00056401
11 *987:50 0.000397413
12 *987:40 0.000955597
13 *987:29 0.000711737
14 *987:25 0.00163463
15 *987:10 0.000615405
16 *1596:B1 *1597:B 0
17 *1596:B1 *1030:8 2.81734e-05
18 *1602:B1 *1600:A 0.000223905
19 *1602:B1 *1026:30 0.000128161
20 *987:25 *1597:B 0
21 *987:29 *1115:8 0
22 *987:40 *1000:51 0
23 *987:40 *1026:36 0
24 *987:75 *1049:8 8.07925e-05
25 *1596:A2 *1596:B1 0
26 *1599:A1 *987:25 0
27 *1599:A2 *987:10 0
28 *1602:A1 *1602:B1 0
29 *1608:B *987:29 0
30 *1617:A1 *987:56 2.20968e-05
31 *1617:A2 *1602:B1 0
32 *1617:A2 *1617:B1 1.53099e-05
33 *1617:A2 *987:56 3.7328e-05
34 *1746:A *987:10 0.000113327
35 *1785:A *1602:B1 0.00017385
36 *52:10 *987:25 0
37 *57:10 *1617:B1 8.07262e-05
38 *124:12 *987:56 0
39 *192:43 *987:75 0.000308442
40 *219:10 *987:10 0
41 *219:10 *987:25 0
42 *380:10 *987:10 4.8613e-05
43 *380:16 *1602:B1 0.000394495
44 *575:23 *1596:B1 0
45 *671:8 *1596:B1 0.00065347
46 *793:9 *987:75 0
47 *794:15 *987:50 0.000276005
48 *799:13 *987:50 0
49 *800:11 *987:75 0
50 *984:166 *1596:B1 0
51 *984:166 *987:10 6.76233e-05
52 *984:166 *987:25 8.29298e-05
53 *984:179 *1596:B1 0
*RES
1 *1746:X *987:10 21.7908 
2 *987:10 *1599:B1 20 
3 *987:10 *987:25 43.7532 
4 *987:25 *987:29 22.4024 
5 *987:29 *1609:B1 40.1122 
6 *987:29 *987:40 3.2296 
7 *987:40 *987:50 23.0228 
8 *987:50 *987:56 1.0516 
9 *987:56 *1617:B1 20.8074 
10 *987:56 *987:75 43.641 
11 *987:75 *1620:B1 20 
12 *987:50 *1613:B1 20 
13 *987:40 *1602:B1 43.7972 
14 *987:25 *1596:B1 27.1258 
*END

*D_NET *988 0.0118632
*CONN
*I *1186:B1 I *D sg13g2_a21oi_1
*I *1606:B1 I *D sg13g2_a21oi_1
*I *1353:A I *D sg13g2_nor2_2
*I *1576:B1 I *D sg13g2_a21oi_1
*I *1579:B1 I *D sg13g2_a21oi_1
*I *1624:A I *D sg13g2_nor2_1
*I *1727:A2 I *D sg13g2_o21ai_1
*I *1192:B1 I *D sg13g2_a21o_1
*I *1747:X O *D sg13g2_buf_2
*CAP
1 *1186:B1 2.34251e-05
2 *1606:B1 0.000178175
3 *1353:A 2.10821e-05
4 *1576:B1 5.13212e-06
5 *1579:B1 0
6 *1624:A 0
7 *1727:A2 0
8 *1192:B1 0
9 *1747:X 0
10 *988:94 0.00061606
11 *988:81 0.00066413
12 *988:72 0.000502803
13 *988:59 0.000716913
14 *988:44 0.000185317
15 *988:38 0.00154387
16 *988:29 0.000375427
17 *988:21 0.00145877
18 *988:14 0.000290721
19 *988:4 0.000463342
20 *1186:B1 *1186:A2 6.74074e-05
21 *1353:A *1353:B 1.54556e-05
22 *1606:B1 *1186:A2 0
23 *988:29 *1162:8 0
24 *988:44 *1104:10 0
25 *988:59 *1622:B 6.74074e-05
26 *988:59 *1022:6 0
27 *988:72 *1622:B 2.98704e-05
28 *988:72 *1022:14 0.000128389
29 *988:94 *1353:B 7.53575e-05
30 *1576:A2 *988:81 0.000181572
31 *1577:B *1576:B1 2.82737e-05
32 *1577:B *988:72 0
33 *1577:B *988:81 0.000106214
34 *1579:A2 *988:72 0.000420956
35 *1606:A1 *1186:B1 0
36 *1622:A *988:59 0
37 *1623:A1 *988:59 0
38 *1623:A2 *988:59 0
39 *1623:B1 *988:38 0.00012839
40 *1623:B1 *988:44 0
41 *1623:B1 *988:59 0
42 *1624:B *988:59 0.00023506
43 *1728:A *988:44 0
44 *1872:CLK *988:21 0
45 *1872:CLK *988:38 0
46 *1872:D *988:21 0
47 *20:33 *988:94 0
48 *20:52 *988:59 0
49 *20:52 *988:72 0.000766477
50 *20:52 *988:81 0
51 *95:8 *988:29 0.000373213
52 *113:10 *1606:B1 4.78023e-05
53 *183:22 *1606:B1 2.81734e-05
54 *198:10 *988:38 0
55 *198:12 *988:38 0
56 *198:49 *988:38 0
57 *198:49 *988:59 0
58 *203:10 *988:29 0
59 *219:10 *988:38 0
60 *379:14 *988:94 0
61 *382:6 *988:94 0
62 *678:22 *988:38 0
63 *712:29 *988:38 0
64 *986:38 *988:14 0
65 *986:38 *988:21 0.000103443
66 *986:49 *988:21 0.000450488
67 *986:49 *988:38 0.00156404
*RES
1 *1747:X *988:4 20 
2 *988:4 *988:14 42.3364 
3 *988:14 *1192:B1 20 
4 *988:4 *988:21 2.3056 
5 *988:21 *988:29 43.7136 
6 *988:29 *1727:A2 20 
7 *988:21 *988:38 10.7096 
8 *988:38 *988:44 41.5664 
9 *988:44 *1624:A 20 
10 *988:38 *988:59 43.7708 
11 *988:59 *1579:B1 20 
12 *988:59 *988:72 4.1052 
13 *988:72 *1576:B1 20.1122 
14 *988:72 *988:81 1.9888 
15 *988:81 *1353:A 20.2728 
16 *988:81 *988:94 24.1624 
17 *988:94 *1606:B1 41.9778 
18 *988:94 *1186:B1 40.2684 
*END

*D_NET *989 0.00806168
*CONN
*I *1712:B1 I *D sg13g2_a21oi_1
*I *1718:B1 I *D sg13g2_a21oi_1
*I *1725:B1 I *D sg13g2_a21oi_1
*I *1715:B1 I *D sg13g2_a21oi_1
*I *1722:B1 I *D sg13g2_a21oi_1
*I *1748:X O *D sg13g2_buf_1
*CAP
1 *1712:B1 2.15772e-05
2 *1718:B1 4.24608e-05
3 *1725:B1 0.000161192
4 *1715:B1 0.000625219
5 *1722:B1 1.84159e-05
6 *1748:X 0.000436564
7 *989:50 0.00113914
8 *989:42 0.00143014
9 *989:21 0.00141734
10 *989:10 0.000774027
11 *1715:B1 *1713:A 0
12 *1715:B1 *1714:B 0.000181383
13 *1715:B1 *1721:C 0
14 *1715:B1 *1024:95 0
15 *1715:B1 *1032:35 0
16 *1725:B1 *1724:B 0
17 *989:10 *990:46 0
18 *989:21 *1714:B 0
19 *989:21 *1024:10 0
20 *989:21 *1024:91 0
21 *989:21 *1024:118 0.00014575
22 *989:42 *1709:A 0
23 *989:42 *1024:118 0.000569106
24 *989:50 *1724:A 0
25 *989:50 *1019:55 0
26 *989:50 *1032:56 0
27 *989:50 *1032:85 0
28 *1712:A1 *1712:B1 0
29 *1712:A1 *989:42 0
30 *1714:A *1715:B1 0
31 *1714:A *989:42 0.000406194
32 *1715:A1 *1715:B1 0
33 *1715:A2 *1715:B1 0
34 *1718:A2 *989:50 0
35 *1720:B *989:10 0
36 *1725:A2 *1718:B1 0
37 *1725:A2 *1725:B1 1.54556e-05
38 *1774:A *989:42 0.000113244
39 *1917:D *989:42 0.000287864
40 *1920:CLK *989:10 0
41 *92:12 *1718:B1 1.54556e-05
42 *92:12 *989:50 0
43 *94:10 *1725:B1 0
44 *167:14 *989:10 0.000261159
45 *200:10 *989:21 0
46 *479:14 *989:42 0
47 *528:6 *989:10 0
48 *984:128 *989:10 0
*RES
1 *1748:X *989:10 43.6608 
2 *989:10 *1722:B1 40.1122 
3 *989:10 *989:21 3.0448 
4 *989:21 *1715:B1 45.3306 
5 *989:21 *989:42 25.2536 
6 *989:42 *989:50 48.0696 
7 *989:50 *1725:B1 21.7138 
8 *989:50 *1718:B1 20.5698 
9 *989:42 *1712:B1 20.2684 
*END

*D_NET *990 0.0107945
*CONN
*I *1191:B1 I *D sg13g2_a21oi_1
*I *1684:B1 I *D sg13g2_a21oi_1
*I *1708:B1 I *D sg13g2_a21oi_1
*I *1705:B1 I *D sg13g2_a21oi_1
*I *1702:B1 I *D sg13g2_a21oi_1
*I *1686:B1 I *D sg13g2_a21oi_1
*I *1507:A I *D sg13g2_inv_1
*I *1167:B1 I *D sg13g2_a21o_1
*I *1749:X O *D sg13g2_buf_2
*CAP
1 *1191:B1 0
2 *1684:B1 0
3 *1708:B1 4.20339e-05
4 *1705:B1 5.4862e-06
5 *1702:B1 0
6 *1686:B1 0.000218157
7 *1507:A 0
8 *1167:B1 0
9 *1749:X 0.00021257
10 *990:96 0.000278466
11 *990:90 0.00103754
12 *990:77 0.000961495
13 *990:60 0.00077359
14 *990:56 0.00103084
15 *990:46 0.00160587
16 *990:25 0.00130334
17 *990:16 0.000527293
18 *990:6 0.0011517
19 *1705:B1 *1703:B 2.8046e-05
20 *990:16 *1152:8 0.000277625
21 *990:25 *1152:8 0
22 *990:46 *1191:A2 0
23 *990:46 *1688:B 0
24 *990:46 *1028:14 0
25 *990:46 *1032:23 0
26 *990:56 *1699:B 0
27 *990:56 *1713:A 0
28 *990:56 *1024:16 0
29 *990:56 *1032:35 0.00070816
30 *990:77 *1699:B 0
31 *990:90 *1699:B 0
32 *990:90 *1707:C 0
33 *990:90 *1083:10 0
34 *1678:A2 *990:46 0
35 *1678:B1 *990:46 0
36 *1683:A1 *990:46 7.53182e-05
37 *1683:A1 *990:56 6.90706e-05
38 *1684:A1 *990:56 7.51291e-05
39 *1685:A *1686:B1 0
40 *1702:A1 *990:60 0
41 *1702:A1 *990:77 0
42 *1702:A2 *990:56 0
43 *1702:A2 *990:60 0
44 *1708:A1 *1708:B1 0
45 *1748:A *990:46 0
46 *1787:A *990:46 0.000340896
47 *1904:D *1686:B1 0
48 *1913:CLK *990:46 0
49 *1913:D *990:46 2.17274e-05
50 *1913:D *990:56 0
51 *78:8 *990:60 0
52 *89:10 *1708:B1 2.20968e-05
53 *168:23 *990:56 0
54 *171:10 *990:16 0
55 *171:10 *990:25 0
56 *171:10 *990:46 0
57 *188:10 *990:90 0
58 *205:22 *990:16 0
59 *222:10 *990:46 0
60 *223:8 *990:25 0
61 *223:8 *990:46 0
62 *532:12 *990:6 0
63 *532:12 *990:16 0
64 *710:6 *990:6 0
65 *710:14 *990:6 0
66 *710:14 *990:16 0
67 *710:25 *990:25 0
68 *741:13 *1705:B1 2.80969e-05
69 *741:21 *1708:B1 0
70 *979:8 *990:56 0
71 *979:48 *1686:B1 0
72 *979:48 *990:77 0
73 *985:50 *990:6 0
74 *989:10 *990:46 0
*RES
1 *1749:X *990:6 21.8832 
2 *990:6 *990:16 44.9764 
3 *990:16 *1167:B1 20 
4 *990:6 *990:25 23.5992 
5 *990:25 *1507:A 40 
6 *990:25 *990:46 28.4194 
7 *990:46 *990:56 47.1544 
8 *990:56 *990:60 23.0206 
9 *990:60 *1686:B1 42.233 
10 *990:60 *990:77 22.31 
11 *990:77 *1702:B1 20 
12 *990:77 *990:90 26.2876 
13 *990:90 *990:96 42.4112 
14 *990:96 *1705:B1 40.1122 
15 *990:90 *1708:B1 40.3234 
16 *990:56 *1684:B1 20 
17 *990:46 *1191:B1 20 
*END

*D_NET *991 0.0148521
*CONN
*I *1181:B1 I *D sg13g2_a21o_1
*I *1629:B1 I *D sg13g2_a21oi_1
*I *1676:A I *D sg13g2_nor2_1
*I *1441:A I *D sg13g2_nor2_2
*I *1175:B1 I *D sg13g2_a21oi_1
*I *1631:B1 I *D sg13g2_a21oi_1
*I *1751:A I *D sg13g2_buf_2
*I *1669:B1 I *D sg13g2_a21oi_1
*I *1750:X O *D sg13g2_buf_4
*CAP
1 *1181:B1 6.77252e-06
2 *1629:B1 4.57939e-05
3 *1676:A 0.000156655
4 *1441:A 2.99709e-05
5 *1175:B1 0
6 *1631:B1 1.42311e-05
7 *1751:A 1.39768e-05
8 *1669:B1 0.000138486
9 *1750:X 0.00032222
10 *991:93 0.000255053
11 *991:79 0.000417725
12 *991:71 0.000936023
13 *991:47 0.000427865
14 *991:28 0.00182618
15 *991:26 0.00169234
16 *991:24 0.00111969
17 *991:20 0.000955961
18 *991:12 0.000683074
19 *991:10 0.00032222
20 *1751:A *992:23 3.37786e-05
21 *991:10 *1750:A 0
22 *991:10 *1050:21 0
23 *991:20 *1051:8 0.000368073
24 *991:47 *1027:16 0.00014502
25 *1181:A2 *991:20 0
26 *1181:A1 *991:10 0
27 *1437:B *991:71 0
28 *1437:A *991:71 0
29 *1439:B *991:20 0.000335965
30 *1441:B *1441:A 2.20968e-05
31 *1441:B *991:71 0
32 *1627:A *991:79 0
33 *1629:A2 *1676:A 0
34 *1669:A1 *1669:B1 0
35 *1669:A2 *991:47 0.000975934
36 *1676:B *1629:B1 0
37 *1786:A *991:79 0.00056857
38 *1810:A *1181:B1 6.85001e-05
39 *1810:A *991:10 0
40 *1810:A *991:20 0
41 *1883:D *991:71 0.000340669
42 *1892:D *991:10 7.51291e-05
43 *5:8 *991:10 0
44 *60:8 *991:24 0
45 *69:10 *991:28 0
46 *75:12 *1669:B1 0
47 *131:27 *991:24 0
48 *131:27 *991:71 0
49 *209:27 *991:79 0
50 *464:12 *1629:B1 0.000151902
51 *464:12 *991:20 0.000388581
52 *464:12 *991:71 0
53 *464:12 *991:93 0.000159514
54 *464:25 *991:71 0
55 *464:27 *991:79 3.23414e-05
56 *681:8 *991:79 0
57 *682:8 *991:71 0
58 *827:13 *991:28 0
59 *828:13 *1669:B1 0
60 *828:13 *991:28 0
61 *974:15 *991:26 0
62 *974:15 *991:28 0
63 *974:15 *991:71 0.000106065
64 *974:27 *991:71 2.20968e-05
65 *974:56 *991:28 0
66 *984:10 *991:24 0
67 *984:10 *991:26 0
68 *984:10 *991:28 0
69 *985:14 *991:20 0.00113982
70 *985:75 *991:20 0.000553781
*RES
1 *1750:X *991:10 42.552 
2 *991:10 *991:12 20 
3 *991:12 *991:20 9.1168 
4 *991:20 *991:24 22.1208 
5 *991:24 *991:26 3.2296 
6 *991:26 *991:28 12.6544 
7 *991:28 *1669:B1 41.3618 
8 *991:28 *991:47 44.928 
9 *991:47 *1751:A 40.1342 
10 *991:26 *1631:B1 40.1122 
11 *991:24 *991:71 25.0072 
12 *991:71 *991:79 43.5266 
13 *991:79 *1175:B1 20 
14 *991:71 *1441:A 20.2992 
15 *991:20 *991:93 0.7216 
16 *991:93 *1676:A 21.5664 
17 *991:93 *1629:B1 20.6908 
18 *991:12 *1181:B1 20.2728 
*END

*D_NET *992 0.0124094
*CONN
*I *1659:B1 I *D sg13g2_a21oi_1
*I *1648:B1 I *D sg13g2_a21oi_1
*I *1571:A2 I *D sg13g2_o21ai_1
*I *1655:B1 I *D sg13g2_a21oi_1
*I *1651:B1 I *D sg13g2_a21oi_1
*I *1672:B1 I *D sg13g2_a21oi_1
*I *1665:B1 I *D sg13g2_a21oi_1
*I *1662:B1 I *D sg13g2_a21oi_1
*I *1751:X O *D sg13g2_buf_2
*CAP
1 *1659:B1 0.000695428
2 *1648:B1 7.46301e-05
3 *1571:A2 0.000801337
4 *1655:B1 7.55668e-05
5 *1651:B1 0
6 *1672:B1 1.01495e-05
7 *1665:B1 0.000389362
8 *1662:B1 0.000221733
9 *1751:X 0
10 *992:101 0.00127171
11 *992:93 0.00125451
12 *992:82 0.000580324
13 *992:63 0.000713816
14 *992:33 0.00111433
15 *992:23 0.00119679
16 *992:4 0.000331311
17 *1571:A2 *1646:A 0
18 *1571:A2 *1646:B 0.000338661
19 *1571:A2 *1894:RESET_B 0
20 *1648:B1 *1646:B 8.11057e-05
21 *1648:B1 *1027:10 3.22362e-05
22 *1648:B1 *1027:12 4.75868e-05
23 *1659:B1 *1020:8 0
24 *1659:B1 *1027:12 0
25 *1659:B1 *1031:10 0
26 *1659:B1 *1031:107 0
27 *1662:B1 *1660:B 0
28 *1662:B1 *1027:48 0
29 *1665:B1 *1663:A 1.54556e-05
30 *1665:B1 *1020:57 0
31 *1665:B1 *1027:34 0.000209763
32 *992:33 *1670:A 0.000234415
33 *992:33 *1020:38 0
34 *992:33 *1027:16 0
35 *992:63 *1027:14 0
36 *992:63 *1027:16 0
37 *992:63 *1031:18 0
38 *992:82 *1649:A 0
39 *992:82 *1027:14 0
40 *992:82 *1031:12 0
41 *992:93 *1027:14 0
42 *992:93 *1031:12 0
43 *992:101 *1027:12 0.000260749
44 *992:101 *1027:14 1.54007e-05
45 *1419:A *1655:B1 0.000226681
46 *1419:A *992:101 0
47 *1570:A *1571:A2 0.00113112
48 *1571:A1 *1571:A2 2.20472e-05
49 *1648:A1 *1648:B1 0
50 *1648:A2 *992:101 0
51 *1650:A *1655:B1 0
52 *1650:A *992:82 7.51684e-05
53 *1651:A1 *992:82 0
54 *1651:A2 *992:82 0.000128578
55 *1661:A *992:33 0
56 *1662:A2 *1662:B1 0
57 *1662:A2 *992:23 0
58 *1662:A2 *992:33 0
59 *1665:A1 *1665:B1 6.73952e-05
60 *1665:A2 *1665:B1 0
61 *1669:A2 *992:33 0
62 *1672:A1 *1672:B1 2.81734e-05
63 *1751:A *992:23 3.37786e-05
64 *1895:CLK *992:101 0
65 *1895:D *992:101 0
66 *1897:D *1659:B1 2.40633e-05
67 *69:10 *1571:A2 0.000603097
68 *70:8 *992:82 0
69 *73:10 *1662:B1 8.08277e-05
70 *690:10 *992:33 0
71 *690:33 *992:33 0
72 *830:15 *992:33 0
73 *832:13 *1665:B1 0
74 *833:9 *1665:B1 2.20968e-05
75 *834:19 *1665:B1 0
76 *974:56 *992:101 0
77 *975:54 *992:23 0
78 *975:54 *992:33 0
*RES
1 *1751:X *992:4 20 
2 *992:4 *1662:B1 22.2066 
3 *992:4 *992:23 21.0384 
4 *992:23 *992:33 45.5704 
5 *992:33 *1665:B1 43.5244 
6 *992:33 *1672:B1 40.1122 
7 *992:23 *992:63 21.012 
8 *992:63 *1651:B1 20 
9 *992:63 *992:82 23.465 
10 *992:82 *1655:B1 40.902 
11 *992:82 *992:93 1.3816 
12 *992:93 *992:101 43.7664 
13 *992:101 *1571:A2 49.7416 
14 *992:101 *1648:B1 40.781 
15 *992:93 *1659:B1 45.4868 
*END

*D_NET *993 0.0103516
*CONN
*I *1168:B1 I *D sg13g2_a21o_1
*I *1528:B1 I *D sg13g2_a21oi_1
*I *1526:B1 I *D sg13g2_a21oi_1
*I *1180:B1 I *D sg13g2_a21oi_1
*I *1197:A I *D sg13g2_nor2_2
*I *1753:A I *D sg13g2_buf_2
*I *1752:X O *D sg13g2_buf_2
*CAP
1 *1168:B1 2.4073e-05
2 *1528:B1 5.53579e-05
3 *1526:B1 0
4 *1180:B1 1.45237e-05
5 *1197:A 0
6 *1753:A 0.000355947
7 *1752:X 0.000674462
8 *993:57 0.00121649
9 *993:34 0.00179075
10 *993:32 0.000479987
11 *993:26 0.00054505
12 *993:16 0.000729604
13 *993:10 0.00107488
14 *1753:A *1180:A2 0
15 *1753:A *1029:30 0
16 *993:34 *1180:A2 0
17 *993:57 *1524:B 0
18 *1168:A2 *993:10 0
19 *1528:A2 *1528:B1 0
20 *1529:A *993:57 2.48589e-05
21 *1530:A0 *993:57 8.00835e-05
22 *1534:A *993:57 0
23 *1784:A *993:32 0
24 *1810:A *1168:B1 6.85001e-05
25 *1810:A *993:10 0
26 *1853:CLK *993:57 0.00108486
27 *1853:D *993:57 0
28 *1:8 *993:10 0
29 *1:8 *993:16 8.06499e-05
30 *24:8 *993:26 0.000210999
31 *25:10 *1528:B1 0
32 *25:10 *993:16 0.000178284
33 *214:22 *993:57 0
34 *215:14 *993:16 0
35 *215:18 *993:16 0
36 *228:31 *993:32 0
37 *230:12 *993:57 0
38 *544:10 *993:57 2.20968e-05
39 *649:10 *993:26 0.000276128
40 *649:10 *993:32 0
41 *651:27 *993:57 0.000210566
42 *662:10 *993:10 0.00012839
43 *982:24 *993:26 0
44 *982:24 *993:32 0.000227879
45 *982:24 *993:34 0.000276634
46 *982:43 *993:16 0.000210819
47 *982:43 *993:26 0.000181572
48 *982:51 *993:10 0.000128161
49 *982:51 *993:16 0
50 *982:73 *993:57 0
51 *984:31 *993:57 0
*RES
1 *1752:X *993:10 46.4328 
2 *993:10 *993:16 23.8104 
3 *993:16 *993:26 43.1988 
4 *993:26 *993:32 22.4948 
5 *993:32 *993:34 2.1208 
6 *993:34 *1753:A 43.4342 
7 *993:34 *993:57 49.812 
8 *993:57 *1197:A 40 
9 *993:32 *1180:B1 40.1122 
10 *993:26 *1526:B1 20 
11 *993:16 *1528:B1 20.5412 
12 *993:10 *1168:B1 40.2728 
*END

*D_NET *994 0.00990418
*CONN
*I *1554:B1 I *D sg13g2_a21oi_1
*I *1569:B1 I *D sg13g2_a21oi_1
*I *1561:B1 I *D sg13g2_a21oi_1
*I *1566:B1 I *D sg13g2_a21oi_1
*I *1548:B1 I *D sg13g2_a21oi_1
*I *1558:B1 I *D sg13g2_a21oi_1
*I *1551:B1 I *D sg13g2_a21oi_1
*I *1545:B1 I *D sg13g2_a21oi_1
*I *1753:X O *D sg13g2_buf_2
*CAP
1 *1554:B1 8.0912e-05
2 *1569:B1 2.3088e-05
3 *1561:B1 0.000335833
4 *1566:B1 3.06657e-05
5 *1548:B1 1.60077e-05
6 *1558:B1 5.94543e-05
7 *1551:B1 0
8 *1545:B1 0
9 *1753:X 0.000269865
10 *994:95 0.000832779
11 *994:93 0.00103235
12 *994:55 0.000246186
13 *994:43 0.000651726
14 *994:39 0.000676727
15 *994:30 0.00024033
16 *994:20 0.0009146
17 *994:14 0.000473625
18 *994:12 0.0005609
19 *994:10 0.000269865
20 *1561:B1 *1559:B 2.20968e-05
21 *1561:B1 *1560:B 0
22 *1561:B1 *1025:75 0
23 *1561:B1 *1029:82 0
24 *1561:B1 *1068:10 0
25 *1566:B1 *1544:B 0
26 *994:10 *1100:10 4.8613e-05
27 *994:14 *1021:63 0.000210153
28 *994:20 *1544:B 0.000181611
29 *994:20 *1563:A 0.000268753
30 *994:20 *1021:63 0.000443521
31 *994:30 *1563:A 0.00057471
32 *994:39 *1025:43 0
33 *994:39 *1029:32 0
34 *994:39 *1029:43 0
35 *994:39 *1074:10 0
36 *994:39 *1095:8 0
37 *994:43 *1025:45 0
38 *994:43 *1029:43 0
39 *994:43 *1074:10 0
40 *994:55 *1549:B 0
41 *994:55 *1555:B 4.78023e-05
42 *994:55 *1071:14 0
43 *994:55 *1073:10 0
44 *994:93 *1021:63 0.000420672
45 *994:93 *1029:76 0
46 *994:95 *1025:75 0
47 *994:95 *1029:76 0
48 *994:95 *1029:82 0
49 *994:95 *1072:10 0
50 *1544:A *1566:B1 2.81734e-05
51 *1544:A *994:20 0
52 *1545:A1 *994:30 2.81734e-05
53 *1545:A2 *994:20 0
54 *1551:A1 *994:55 0
55 *1551:A2 *1558:B1 0
56 *1551:A2 *994:55 0.000150377
57 *1558:A2 *1558:B1 0
58 *1561:A1 *1561:B1 0
59 *1566:A1 *994:14 0
60 *1566:A1 *994:20 0
61 *1566:A2 *994:14 0
62 *1566:A2 *994:93 0
63 *1569:A1 *1569:B1 6.74074e-05
64 *1855:CLK *994:20 0
65 *1855:CLK *994:30 0
66 *1857:D *1554:B1 0
67 *1860:CLK *994:93 0
68 *1860:D *994:14 0
69 *35:10 *994:55 8.14947e-05
70 *37:10 *1558:B1 0
71 *40:8 *1561:B1 0.000275384
72 *242:12 *1554:B1 0
73 *561:10 *994:95 0
74 *658:23 *1561:B1 0
75 *765:11 *994:10 0
76 *983:10 *994:93 0
77 *983:51 *1561:B1 0.00034032
*RES
1 *1753:X *994:10 42.3144 
2 *994:10 *994:12 20 
3 *994:12 *994:14 0.9328 
4 *994:14 *994:20 4.0392 
5 *994:20 *994:30 42.7698 
6 *994:30 *1545:B1 20 
7 *994:20 *994:39 21.4696 
8 *994:39 *994:43 23.0448 
9 *994:43 *994:55 42.4354 
10 *994:55 *1551:B1 20 
11 *994:43 *1558:B1 20.5412 
12 *994:39 *1548:B1 40.1122 
13 *994:14 *1566:B1 20.385 
14 *994:12 *994:93 24.8224 
15 *994:93 *994:95 3.3264 
16 *994:95 *1561:B1 43.2076 
17 *994:95 *1569:B1 40.2684 
18 *994:93 *1554:B1 40.6908 
*END

*D_NET *995 0.00486028
*CONN
*I *1253:A I *D sg13g2_nor2_1
*I *1245:A I *D sg13g2_xnor2_1
*I *1256:A I *D sg13g2_nor4_1
*I *1755:A I *D sg13g2_buf_2
*I *1754:X O *D sg13g2_buf_1
*CAP
1 *1253:A 0
2 *1245:A 0
3 *1256:A 0
4 *1755:A 0
5 *1754:X 0.000155396
6 *995:50 0.00018997
7 *995:39 0.000632043
8 *995:29 0.000967203
9 *995:25 0.000465514
10 *995:14 0.000278532
11 *995:6 0.000754251
12 *995:14 *1224:C 0.000275755
13 *995:14 *996:10 4.77421e-05
14 *995:39 *1256:C 0
15 *995:39 *999:75 0
16 *1224:A *995:6 0
17 *1224:D *995:25 0.000128201
18 *1234:A *995:25 0
19 *1240:A1 *995:39 0
20 *1251:C *995:39 0
21 *1252:A2 *995:39 0
22 *240:49 *995:50 0
23 *256:25 *995:25 0
24 *257:10 *995:14 0
25 *258:14 *995:39 0
26 *260:14 *995:39 0
27 *260:20 *995:50 7.54981e-05
28 *263:27 *995:50 0.000128044
29 *267:12 *995:39 0
30 *271:16 *995:39 0
31 *272:12 *995:39 4.78023e-05
32 *272:24 *995:39 0.0004067
33 *283:10 *995:25 0
34 *285:10 *995:39 0.000127783
35 *286:8 *995:25 0.000146063
36 *656:49 *995:6 0
37 *657:18 *995:14 0
38 *661:97 *995:14 3.37786e-05
39 *661:107 *995:14 0
*RES
1 *1754:X *995:6 21.2496 
2 *995:6 *995:14 42.4398 
3 *995:14 *1755:A 20 
4 *995:6 *995:25 22.7632 
5 *995:25 *995:29 21.3552 
6 *995:29 *995:39 45.4912 
7 *995:39 *1256:A 20 
8 *995:29 *995:50 41.7776 
9 *995:50 *1245:A 20 
10 *995:25 *1253:A 40 
*END

*D_NET *996 0.00704265
*CONN
*I *1224:C I *D sg13g2_nor4_1
*I *1252:A1 I *D sg13g2_o21ai_1
*I *1225:B2 I *D sg13g2_a221oi_1
*I *1204:A I *D sg13g2_nor2_1
*I *1228:A1 I *D sg13g2_o21ai_1
*I *1247:A I *D sg13g2_xnor2_1
*I *1214:A0 I *D sg13g2_mux2_1
*I *1229:A I *D sg13g2_or3_1
*I *1755:X O *D sg13g2_buf_2
*CAP
1 *1224:C 0.00015433
2 *1252:A1 0.000306619
3 *1225:B2 6.56492e-05
4 *1204:A 5.16238e-05
5 *1228:A1 7.2888e-05
6 *1247:A 0.00014274
7 *1214:A0 0.000209533
8 *1229:A 0
9 *1755:X 2.78904e-05
10 *996:39 0.000561504
11 *996:33 0.000449209
12 *996:24 0.000406992
13 *996:20 0.000503941
14 *996:16 0.000389284
15 *996:10 0.0005573
16 *996:8 0.000321682
17 *1214:A0 *1215:A 7.51291e-05
18 *1214:A0 *997:46 0
19 *1228:A1 *999:20 0
20 *1247:A *1215:A 0.000106065
21 *1247:A *1247:B 1.54556e-05
22 *1252:A1 *1239:B 0
23 *996:10 *998:16 0
24 *996:33 *1222:B1 0
25 *996:33 *999:20 0
26 *1204:B *1204:A 0
27 *1207:A1 *1247:A 0
28 *1213:A *1214:A0 0
29 *1213:A *996:24 0
30 *1214:A1 *1214:A0 0
31 *1214:A1 *996:39 0.000210056
32 *1217:A *1224:C 0
33 *1219:B1 *996:20 0
34 *1220:A1 *1225:B2 0
35 *1221:A *996:33 7.51291e-05
36 *1225:A1 *1225:B2 0
37 *1225:A2 *1225:B2 0.000128201
38 *1225:A2 *1252:A1 0.0004473
39 *1225:A2 *996:16 0.000128161
40 *1230:A2 *1228:A1 0.000136311
41 *1230:A2 *996:33 0.00028649
42 *1248:B *1247:A 0
43 *1252:A2 *1252:A1 0
44 *12:16 *996:16 0
45 *14:8 *1204:A 0
46 *14:31 *996:24 0
47 *247:10 *1214:A0 0.000181422
48 *247:10 *1247:A 7.51291e-05
49 *247:10 *996:39 4.77421e-05
50 *249:8 *996:39 0
51 *254:10 *1228:A1 4.8613e-05
52 *254:10 *996:39 7.98231e-05
53 *255:8 *996:20 0
54 *257:10 *996:10 0
55 *257:10 *996:20 4.78023e-05
56 *258:14 *1225:B2 0
57 *272:12 *1252:A1 0
58 *657:18 *1224:C 3.86694e-05
59 *657:28 *1224:C 0.000210819
60 *661:20 *996:10 0
61 *661:20 *996:16 0
62 *661:20 *996:20 0
63 *661:39 *996:20 0
64 *661:39 *996:24 0
65 *661:39 *996:39 4.75868e-05
66 *661:41 *996:39 0.000112059
67 *661:97 *1252:A1 0
68 *995:14 *1224:C 0.000275755
69 *995:14 *996:10 4.77421e-05
*RES
1 *1755:X *996:8 40.1936 
2 *996:8 *996:10 1.1968 
3 *996:10 *996:16 20.968 
4 *996:16 *996:20 21.8392 
5 *996:20 *996:24 21.7512 
6 *996:24 *1229:A 20 
7 *996:24 *996:33 1.8392 
8 *996:33 *996:39 41.936 
9 *996:39 *1214:A0 22.2968 
10 *996:39 *1247:A 21.4168 
11 *996:33 *1228:A1 20.9658 
12 *996:20 *1204:A 40.3718 
13 *996:16 *1225:B2 20.7832 
14 *996:10 *1252:A1 43.025 
15 *996:8 *1224:C 41.7204 
*END

*D_NET *997 0.00827982
*CONN
*I *1222:B1 I *D sg13g2_a21oi_1
*I *1229:B I *D sg13g2_or3_1
*I *1256:B I *D sg13g2_nor4_1
*I *1228:A2 I *D sg13g2_o21ai_1
*I *1247:B I *D sg13g2_xnor2_1
*I *1215:A I *D sg13g2_inv_1
*I *1560:A I *D sg13g2_nand3_1
*I *1218:A I *D sg13g2_nor2_1
*I *1756:X O *D sg13g2_buf_2
*CAP
1 *1222:B1 0.000266859
2 *1229:B 4.94877e-05
3 *1256:B 0.000450126
4 *1228:A2 0
5 *1247:B 1.32872e-05
6 *1215:A 0.000155735
7 *1560:A 0.000474732
8 *1218:A 9.77168e-05
9 *1756:X 0
10 *997:94 0.000413437
11 *997:70 0.000511205
12 *997:50 0.000304552
13 *997:46 0.000684983
14 *997:38 0.000728831
15 *997:10 0.00100583
16 *997:4 0.000576748
17 *1222:B1 *999:20 0
18 *1222:B1 *999:47 0
19 *1229:B *998:33 1.53311e-05
20 *1256:B *1256:C 7.50643e-05
21 *1560:A *998:16 0
22 *997:10 *998:16 0
23 *997:10 *1099:8 0
24 *997:38 *998:16 0
25 *997:46 *998:24 7.98231e-05
26 *997:46 *998:33 0
27 *997:46 *999:20 0.000392025
28 *997:94 *1758:A 9.98265e-05
29 *997:94 *998:33 0
30 *997:94 *999:8 0.000207231
31 *1204:B *1222:B1 0.000310489
32 *1205:A2 *1256:B 0
33 *1207:A1 *997:46 0.00028702
34 *1214:A0 *1215:A 7.51291e-05
35 *1214:A0 *997:46 0
36 *1214:A1 *1215:A 2.20968e-05
37 *1216:B1 *1215:A 0
38 *1216:A1 *1215:A 0
39 *1218:B *1218:A 2.21365e-05
40 *1230:A1 *1222:B1 0
41 *1230:A2 *1222:B1 0
42 *1247:A *1215:A 0.000106065
43 *1247:A *1247:B 1.54556e-05
44 *1248:B *1247:B 0
45 *1756:A *1222:B1 0
46 *12:6 *1560:A 0
47 *12:16 *1256:B 0.000180503
48 *14:8 *997:38 0
49 *14:31 *1256:B 7.99601e-05
50 *247:10 *997:46 0
51 *249:8 *1256:B 0
52 *249:8 *997:50 0.000242756
53 *249:8 *997:70 9.67087e-05
54 *254:38 *1256:B 0.000238667
55 *281:10 *1256:B 0
56 *281:10 *997:50 0
57 *658:23 *1560:A 0
58 *661:8 *1560:A 0
59 *661:16 *1218:A 0
60 *661:16 *1560:A 0
61 *996:33 *1222:B1 0
*RES
1 *1756:X *997:4 20 
2 *997:4 *997:10 23.6608 
3 *997:10 *1218:A 40.7216 
4 *997:10 *1560:A 44.0436 
5 *997:4 *997:38 21.3992 
6 *997:38 *997:46 44.9016 
7 *997:46 *997:50 21.3816 
8 *997:50 *1215:A 21.5048 
9 *997:50 *1247:B 20.2728 
10 *997:46 *997:70 0.6424 
11 *997:70 *1228:A2 40 
12 *997:70 *1256:B 44.0656 
13 *997:38 *997:94 21.144 
14 *997:94 *1229:B 20.4664 
15 *997:94 *1222:B1 22.6972 
*END

*D_NET *998 0.00471023
*CONN
*I *1217:D I *D sg13g2_or4_1
*I *1229:C I *D sg13g2_or3_1
*I *1758:A I *D sg13g2_buf_2
*I *1214:S I *D sg13g2_mux2_1
*I *1757:X O *D sg13g2_buf_1
*CAP
1 *1217:D 0
2 *1229:C 0
3 *1758:A 2.55646e-05
4 *1214:S 0
5 *1757:X 0.000926333
6 *998:33 0.000151354
7 *998:24 0.000241632
8 *998:16 0.00115652
9 *998:10 0.00171543
10 *998:16 *999:34 0
11 *998:16 *999:47 0
12 *998:33 *999:20 2.20968e-05
13 *1213:A *998:24 0
14 *1217:A *998:10 0
15 *1217:A *998:16 0
16 *1219:B1 *998:16 0
17 *1229:B *998:33 1.53311e-05
18 *1560:A *998:16 0
19 *1568:A *998:10 0
20 *1756:A *998:16 0
21 *1780:A *998:10 0
22 *252:8 *998:16 0
23 *656:27 *998:10 0
24 *656:57 *998:10 0
25 *658:35 *998:10 0.000276321
26 *661:20 *998:16 0
27 *996:10 *998:16 0
28 *997:10 *998:16 0
29 *997:38 *998:16 0
30 *997:46 *998:24 7.98231e-05
31 *997:46 *998:33 0
32 *997:94 *1758:A 9.98265e-05
33 *997:94 *998:33 0
*RES
1 *1757:X *998:10 49.8912 
2 *998:10 *998:16 26.6176 
3 *998:16 *998:24 42.288 
4 *998:24 *1214:S 20 
5 *998:16 *998:33 1.1792 
6 *998:33 *1758:A 20.3982 
7 *998:33 *1229:C 20 
8 *998:10 *1217:D 40 
*END

*D_NET *999 0.00672211
*CONN
*I *1223:B I *D sg13g2_nor2_2
*I *1239:B I *D sg13g2_or2_1
*I *1251:A I *D sg13g2_nor3_1
*I *1256:C I *D sg13g2_nor4_1
*I *1222:A2 I *D sg13g2_a21oi_1
*I *1219:A1 I *D sg13g2_a21oi_1
*I *1207:S I *D sg13g2_mux2_2
*I *1228:B1 I *D sg13g2_o21ai_1
*I *1758:X O *D sg13g2_buf_2
*CAP
1 *1223:B 0
2 *1239:B 0.000110636
3 *1251:A 0
4 *1256:C 0.000257015
5 *1222:A2 4.66141e-05
6 *1219:A1 0
7 *1207:S 0.000108995
8 *1228:B1 0
9 *1758:X 7.29641e-05
10 *999:101 0.000204982
11 *999:84 0.000398762
12 *999:75 0.00027779
13 *999:58 0.000585723
14 *999:47 0.00056434
15 *999:34 0.00045831
16 *999:20 0.000589123
17 *999:8 0.000627739
18 *1204:B *1222:A2 0
19 *1204:B *999:8 0
20 *1204:B *999:47 0
21 *1207:A0 *1207:S 2.19663e-05
22 *1207:A1 *1207:S 0
23 *1207:A1 *999:20 0.000340003
24 *1213:A *999:20 0.000176532
25 *1213:A *999:34 0.00014504
26 *1213:A *999:47 8.05903e-05
27 *1219:B1 *999:47 8.01443e-05
28 *1222:B1 *999:20 0
29 *1222:B1 *999:47 0
30 *1224:D *1239:B 0
31 *1225:A1 *1256:C 0.000181194
32 *1228:A1 *999:20 0
33 *1230:A2 *1207:S 0.000127783
34 *1230:A2 *1222:A2 0
35 *1230:A2 *999:47 0
36 *1251:B *999:84 0
37 *1251:B *999:101 0
38 *1252:A1 *1239:B 0
39 *1252:A2 *1256:C 0
40 *1254:B1 *999:84 0
41 *1256:B *1256:C 7.50643e-05
42 *14:8 *999:47 7.51291e-05
43 *14:31 *999:47 3.23414e-05
44 *254:10 *999:20 4.84434e-05
45 *255:8 *999:58 0
46 *255:8 *999:75 0
47 *257:10 *999:75 0
48 *258:14 *999:58 8.00835e-05
49 *258:14 *999:75 0.000177361
50 *272:12 *1239:B 0
51 *272:12 *1256:C 0
52 *272:12 *999:75 0
53 *272:12 *999:84 0
54 *657:18 *1239:B 0
55 *661:35 *999:47 0
56 *661:39 *999:58 7.80453e-05
57 *661:88 *999:58 7.80453e-05
58 *661:97 *1239:B 0
59 *661:97 *999:84 0
60 *661:107 *999:101 0
61 *995:39 *1256:C 0
62 *995:39 *999:75 0
63 *996:33 *999:20 0
64 *997:46 *999:20 0.000392025
65 *997:94 *999:8 0.000207231
66 *998:16 *999:34 0
67 *998:16 *999:47 0
68 *998:33 *999:20 2.20968e-05
*RES
1 *1758:X *999:8 40.8272 
2 *999:8 *999:20 25.0864 
3 *999:20 *1228:B1 20 
4 *999:20 *1207:S 21.144 
5 *999:8 *999:34 0.8272 
6 *999:34 *1219:A1 40 
7 *999:34 *999:47 23.0272 
8 *999:47 *1222:A2 20.4576 
9 *999:47 *999:58 21.1968 
10 *999:58 *1256:C 42.4156 
11 *999:58 *999:75 21.936 
12 *999:75 *1251:A 20 
13 *999:75 *999:84 0.7832 
14 *999:84 *1239:B 21.0604 
15 *999:84 *999:101 41.7512 
16 *999:101 *1223:B 20 
*END

*D_NET *1000 0.00655367
*CONN
*I *1608:A I *D sg13g2_nand3_1
*I *1308:A I *D sg13g2_xor2_1
*I *1321:A I *D sg13g2_nor3_2
*I *1760:A I *D sg13g2_buf_2
*I *1759:X O *D sg13g2_buf_2
*CAP
1 *1608:A 0
2 *1308:A 0.000236326
3 *1321:A 1.99279e-05
4 *1760:A 0
5 *1759:X 0
6 *1000:51 0.000255716
7 *1000:25 0.000656313
8 *1000:14 0.000337625
9 *1000:6 0.00168076
10 *1000:4 0.00119879
11 *1000:6 *1601:B 4.15789e-05
12 *1000:6 *1601:C 0.000181233
13 *1000:6 *1605:B 0
14 *1000:6 *1608:C 0
15 *1000:51 *1026:36 0
16 *1282:B *1000:25 0.000181233
17 *1307:A1 *1308:A 0
18 *1307:A1 *1000:25 0
19 *1308:B *1308:A 0
20 *1312:A1 *1000:25 0.000394495
21 *1312:S *1308:A 0
22 *1312:S *1000:25 0
23 *1601:A *1000:6 0.000145021
24 *1602:A2 *1000:6 0
25 *1608:B *1000:51 3.86694e-05
26 *1609:A2 *1000:51 3.8807e-05
27 *311:8 *1000:14 0
28 *311:12 *1000:25 0
29 *311:16 *1000:14 0
30 *338:16 *1308:A 3.86694e-05
31 *338:31 *1308:A 0
32 *350:10 *1308:A 0.0001818
33 *380:16 *1000:6 0
34 *380:33 *1000:6 0
35 *672:10 *1000:6 0
36 *672:30 *1000:6 0.000926705
37 *987:40 *1000:51 0
*RES
1 *1759:X *1000:4 20 
2 *1000:4 *1000:6 9.9088 
3 *1000:6 *1000:14 43.3638 
4 *1000:14 *1760:A 20 
5 *1000:6 *1000:25 4.4352 
6 *1000:25 *1321:A 20.2728 
7 *1000:25 *1308:A 22.0504 
8 *1000:4 *1000:51 42.2748 
9 *1000:51 *1608:A 20 
*END

*D_NET *1001 0.00633993
*CONN
*I *1298:A1 I *D sg13g2_o21ai_1
*I *1327:B I *D sg13g2_nor3_1
*I *1332:A I *D sg13g2_nor2_1
*I *1761:A I *D sg13g2_buf_2
*I *1276:A I *D sg13g2_or2_1
*I *1283:A I *D sg13g2_or2_1
*I *1760:X O *D sg13g2_buf_2
*CAP
1 *1298:A1 7.90112e-05
2 *1327:B 0.00016688
3 *1332:A 0
4 *1761:A 2.74622e-05
5 *1276:A 0
6 *1283:A 0
7 *1760:X 0.000366005
8 *1001:46 0.000441677
9 *1001:31 0.000975691
10 *1001:20 0.000561476
11 *1001:18 0.000371277
12 *1001:10 0.000649413
13 *1298:A1 *1009:112 0
14 *1327:B *1327:A 0
15 *1327:B *1005:30 0
16 *1001:10 *1003:33 0
17 *1001:10 *1009:112 0
18 *1001:18 *1005:21 0.000341274
19 *1001:18 *1005:30 0
20 *1001:31 *1004:56 0
21 *1001:31 *1005:30 0.000128351
22 *1001:46 *1332:B 0
23 *1283:B *1001:18 8.56251e-05
24 *1297:B_N *1298:A1 0
25 *1298:B1 *1298:A1 3.53549e-05
26 *1298:B1 *1327:B 0
27 *1328:A2 *1327:B 4.79124e-05
28 *1333:B1 *1761:A 0.000100344
29 *1333:B1 *1001:46 0
30 *1333:A2 *1761:A 0
31 *1333:A2 *1001:46 0
32 *1337:B *1001:31 0.000259968
33 *1337:B *1001:46 4.77786e-05
34 *1345:A2 *1001:46 0
35 *1345:B1 *1001:46 0
36 *302:10 *1001:31 4.77421e-05
37 *302:18 *1327:B 0.000181194
38 *302:18 *1001:31 0.000128161
39 *311:16 *1001:10 0
40 *311:30 *1001:18 0.000181611
41 *312:6 *1327:B 0
42 *315:12 *1001:18 0.000606963
43 *315:22 *1327:B 6.46828e-05
44 *315:22 *1001:18 0.000112425
45 *315:22 *1001:31 0
46 *315:39 *1001:46 0
47 *315:48 *1001:18 7.51688e-05
48 *322:14 *1001:31 7.90636e-05
49 *333:12 *1001:31 0
50 *365:14 *1001:31 0.000177422
*RES
1 *1760:X *1001:10 43.3176 
2 *1001:10 *1001:18 43.2648 
3 *1001:18 *1001:20 20 
4 *1001:20 *1283:A 20 
5 *1001:20 *1001:31 25.4032 
6 *1001:31 *1276:A 40 
7 *1001:31 *1001:46 23.168 
8 *1001:46 *1761:A 20.3982 
9 *1001:46 *1332:A 20 
10 *1001:18 *1327:B 41.848 
11 *1001:10 *1298:A1 40.7832 
*END

*D_NET *1002 0.00877971
*CONN
*I *1296:A1 I *D sg13g2_o21ai_1
*I *1295:B I *D sg13g2_nand3b_1
*I *1330:B I *D sg13g2_nor2_1
*I *1291:B I *D sg13g2_or4_1
*I *1288:A I *D sg13g2_nand2_1
*I *1301:A1 I *D sg13g2_o21ai_1
*I *1302:B I *D sg13g2_or3_1
*I *1299:B I *D sg13g2_nand2b_1
*I *1761:X O *D sg13g2_buf_2
*CAP
1 *1296:A1 4.61515e-06
2 *1295:B 5.53835e-05
3 *1330:B 2.35325e-05
4 *1291:B 0.000134182
5 *1288:A 2.48711e-05
6 *1301:A1 6.21457e-05
7 *1302:B 0.000104428
8 *1299:B 0.000607983
9 *1761:X 3.12253e-05
10 *1002:108 0.000529461
11 *1002:91 0.000815469
12 *1002:67 0.000159053
13 *1002:65 0.000115494
14 *1002:57 0.000467592
15 *1002:29 0.000166574
16 *1002:12 0.000667314
17 *1002:10 0.000530475
18 *1002:8 0.000472746
19 *1288:A *1291:C 0
20 *1288:A *1004:76 1.42964e-05
21 *1291:B *1291:C 6.31611e-05
22 *1299:B *1007:31 0
23 *1301:A1 *1007:38 7.51688e-05
24 *1302:B *1301:B1 0
25 *1302:B *1302:C 0
26 *1302:B *1007:25 7.51291e-05
27 *1302:B *1007:38 0.000106065
28 *1330:B *1333:A1 7.51684e-05
29 *1002:12 *1007:31 0
30 *1002:57 *1276:B 0
31 *1002:57 *1007:38 0.000287825
32 *1002:57 *1007:55 0.000128201
33 *1002:65 *1007:55 0.000180685
34 *1002:91 *1333:A1 0
35 *1002:91 *1004:25 0
36 *1002:108 *1004:17 0
37 *1002:108 *1006:60 0
38 *1002:108 *1007:25 0.000500143
39 *1296:A2 *1295:B 0.000128539
40 *1296:A2 *1296:A1 2.37541e-05
41 *1296:A2 *1002:108 0
42 *1303:B1 *1299:B 0
43 *1304:A2 *1002:108 0
44 *1326:B *1299:B 0.000150931
45 *1328:A2 *1299:B 0
46 *1331:B1 *1002:108 0
47 *1333:B1 *1002:91 0.000447716
48 *1333:A2 *1002:57 0
49 *1333:A2 *1002:91 0
50 *1334:A0 *1002:108 0
51 *1337:B *1288:A 1.52019e-05
52 *1337:B *1291:B 0.000340669
53 *1344:B *1002:65 1.50747e-05
54 *22:73 *1002:65 7.81514e-05
55 *302:18 *1299:B 0
56 *305:10 *1002:57 0.000392677
57 *311:30 *1299:B 0
58 *315:22 *1299:B 0
59 *315:22 *1002:10 0
60 *315:22 *1002:12 0
61 *315:39 *1002:57 0
62 *316:37 *1299:B 0.000384906
63 *317:8 *1002:65 7.81514e-05
64 *327:10 *1299:B 0
65 *328:8 *1299:B 0
66 *330:10 *1299:B 0
67 *359:8 *1002:108 0.000210626
68 *362:8 *1002:10 0
69 *362:8 *1002:108 0
70 *363:10 *1301:A1 0
71 *363:10 *1302:B 3.49263e-05
*RES
1 *1761:X *1002:8 40.1936 
2 *1002:8 *1002:10 1.1088 
3 *1002:10 *1002:12 0.2728 
4 *1002:12 *1299:B 45.3526 
5 *1002:12 *1002:29 20 
6 *1002:29 *1302:B 21.133 
7 *1002:29 *1301:A1 20.6732 
8 *1002:10 *1002:57 43.8896 
9 *1002:57 *1002:65 41.1792 
10 *1002:65 *1002:67 20 
11 *1002:67 *1288:A 20.2728 
12 *1002:67 *1291:B 21.628 
13 *1002:8 *1002:91 23.7224 
14 *1002:91 *1330:B 20.2992 
15 *1002:91 *1002:108 44.4352 
16 *1002:108 *1295:B 20.6204 
17 *1002:108 *1296:A1 20.1826 
*END

*D_NET *1003 0.0103931
*CONN
*I *1763:A I *D sg13g2_buf_2
*I *1291:C I *D sg13g2_or4_1
*I *1318:A I *D sg13g2_nand2_1
*I *1611:A I *D sg13g2_nand3_1
*I *1762:X O *D sg13g2_buf_1
*CAP
1 *1763:A 4.50035e-05
2 *1291:C 0.000834951
3 *1318:A 0
4 *1611:A 0.000139746
5 *1762:X 0.000132944
6 *1003:37 0.000924115
7 *1003:33 0.00213402
8 *1003:18 0.00303428
9 *1003:12 0.000894682
10 *1003:10 0.000132944
11 *1291:C *1004:76 0
12 *1291:C *1009:54 0.000401496
13 *1003:33 *1619:A 0
14 *1003:33 *1768:A 0
15 *1003:33 *1005:40 0
16 *1003:33 *1009:10 0
17 *1003:33 *1022:76 0
18 *1279:B *1291:C 4.78029e-05
19 *1288:A *1291:C 0
20 *1291:B *1291:C 6.31611e-05
21 *1291:D *1291:C 0
22 *1322:B *1003:33 0
23 *1337:A *1291:C 7.51291e-05
24 *1762:A *1003:18 0
25 *21:8 *1003:18 0
26 *21:47 *1291:C 0
27 *125:8 *1003:18 0.000243041
28 *310:12 *1003:37 0
29 *334:12 *1291:C 0
30 *344:6 *1003:33 0
31 *344:12 *1291:C 0
32 *344:25 *1003:33 0
33 *344:25 *1003:37 0.000112643
34 *350:25 *1291:C 0
35 *350:25 *1003:37 0
36 *353:10 *1291:C 0.000272372
37 *354:10 *1291:C 0.000274665
38 *374:10 *1291:C 0.000208429
39 *792:19 *1003:18 0
40 *797:9 *1003:18 0
41 *799:13 *1003:10 0.000211252
42 *800:11 *1003:10 0.000210432
43 *1001:10 *1003:33 0
*RES
1 *1762:X *1003:10 41.3904 
2 *1003:10 *1003:12 20 
3 *1003:12 *1003:18 27.7792 
4 *1003:18 *1611:A 40.9812 
5 *1003:18 *1003:33 33.816 
6 *1003:33 *1003:37 20.8272 
7 *1003:37 *1318:A 40 
8 *1003:37 *1291:C 48.1532 
9 *1003:12 *1763:A 20.3454 
*END

*D_NET *1004 0.0101989
*CONN
*I *1295:C I *D sg13g2_nand3b_1
*I *1302:C I *D sg13g2_or3_1
*I *1332:B I *D sg13g2_nor2_1
*I *1276:B I *D sg13g2_or2_1
*I *1285:A I *D sg13g2_inv_1
*I *1288:B I *D sg13g2_nand2_1
*I *1301:A2 I *D sg13g2_o21ai_1
*I *1294:B1 I *D sg13g2_a21o_1
*I *1763:X O *D sg13g2_buf_2
*CAP
1 *1295:C 8.18719e-06
2 *1302:C 6.14456e-05
3 *1332:B 0.000197858
4 *1276:B 9.82172e-05
5 *1285:A 0
6 *1288:B 0
7 *1301:A2 0
8 *1294:B1 0.000108921
9 *1763:X 0.000140574
10 *1004:97 0.000793147
11 *1004:76 0.000123333
12 *1004:62 0.00113009
13 *1004:56 0.00057261
14 *1004:44 0.000708819
15 *1004:35 2.50129e-05
16 *1004:29 0.000256597
17 *1004:25 0.000807258
18 *1004:17 0.000719256
19 *1004:6 0.000392594
20 *1276:B *1007:55 7.51688e-05
21 *1302:C *1007:25 7.51684e-05
22 *1004:25 *1333:A1 0
23 *1004:25 *1007:10 0
24 *1004:25 *1007:25 0.000925157
25 *1004:25 *1007:31 0
26 *1004:35 *1301:B1 2.21361e-05
27 *1004:35 *1007:38 7.53572e-05
28 *1004:97 *1293:B2 7.51291e-05
29 *1004:97 *1343:A 0.000125658
30 *1004:97 *1009:42 4.63959e-05
31 *1004:97 *1009:58 0.000177654
32 *1280:C *1004:97 0
33 *1288:A *1004:76 1.42964e-05
34 *1291:C *1004:76 0
35 *1293:B1 *1004:97 0.000209703
36 *1293:A1 *1004:97 0
37 *1293:A2 *1004:97 0.000125658
38 *1296:A2 *1294:B1 0
39 *1296:A2 *1004:17 0
40 *1302:B *1302:C 0
41 *1333:A2 *1004:25 0
42 *1334:A0 *1302:C 0
43 *1335:A *1004:97 7.89572e-05
44 *1337:A *1004:76 7.51291e-05
45 *1337:A *1004:97 0.000437636
46 *1337:B *1004:76 7.05758e-05
47 *1338:A *1004:56 0
48 *1341:A *1004:56 0
49 *1341:A *1004:76 0
50 *1341:B *1004:56 0
51 *1341:B *1004:62 0
52 *1342:C1 *1004:62 0
53 *1343:B *1004:97 0.000258985
54 *1762:A *1004:25 0
55 *22:73 *1004:76 8.00835e-05
56 *315:22 *1332:B 0.00019422
57 *315:22 *1004:56 0.000111296
58 *315:39 *1332:B 0
59 *317:8 *1004:76 8.00835e-05
60 *332:28 *1004:56 0
61 *334:92 *1004:97 0
62 *350:25 *1004:97 0.000433077
63 *363:10 *1276:B 0
64 *363:10 *1302:C 0
65 *363:10 *1004:35 0
66 *363:10 *1004:56 0.000287448
67 *363:36 *1004:56 0
68 *1001:31 *1004:56 0
69 *1001:46 *1332:B 0
70 *1002:57 *1276:B 0
71 *1002:91 *1004:25 0
72 *1002:108 *1004:17 0
*RES
1 *1763:X *1004:6 21.0384 
2 *1004:6 *1294:B1 20.9416 
3 *1004:6 *1004:17 1.2892 
4 *1004:17 *1004:25 25.9532 
5 *1004:25 *1004:29 21.7776 
6 *1004:29 *1004:35 40.2992 
7 *1004:35 *1301:A2 20 
8 *1004:29 *1004:44 20.5104 
9 *1004:44 *1004:56 43.388 
10 *1004:56 *1004:62 21.4168 
11 *1004:62 *1004:76 41.4168 
12 *1004:76 *1288:B 20 
13 *1004:62 *1004:97 47.788 
14 *1004:97 *1285:A 20 
15 *1004:44 *1276:B 40.8536 
16 *1004:44 *1332:B 41.7512 
17 *1004:25 *1302:C 40.572 
18 *1004:17 *1295:C 20.121 
*END

*D_NET *1005 0.00483724
*CONN
*I *1281:A2 I *D sg13g2_a21oi_2
*I *1315:B I *D sg13g2_nor2_2
*I *1327:A I *D sg13g2_nor3_1
*I *1765:A I *D sg13g2_buf_1
*I *1764:X O *D sg13g2_buf_2
*CAP
1 *1281:A2 0
2 *1315:B 0
3 *1327:A 3.09307e-05
4 *1765:A 3.9143e-05
5 *1764:X 0.000359116
6 *1005:40 0.000279491
7 *1005:30 0.000528132
8 *1005:21 0.000751095
9 *1005:8 0.000869782
10 *1005:8 *1768:A 0.000624951
11 *1005:8 *1009:10 0
12 *1005:21 *1297:A 0
13 *1005:21 *1768:A 0
14 *1005:21 *1006:6 0
15 *1005:21 *1009:6 0
16 *1005:40 *1009:17 7.51684e-05
17 *1005:40 *1009:27 0.000210508
18 *1283:B *1005:30 0.000107722
19 *1298:B1 *1327:A 0
20 *1298:B1 *1005:21 0
21 *1326:B *1005:30 0
22 *1327:B *1327:A 0
23 *1327:B *1005:30 0
24 *1327:C *1005:30 7.51684e-05
25 *1764:A *1005:8 0
26 *22:28 *1005:21 0
27 *302:10 *1005:40 0
28 *311:16 *1005:40 0
29 *311:30 *1005:21 0.000235021
30 *311:30 *1005:30 0.000181383
31 *315:12 *1005:21 0
32 *315:48 *1005:30 0
33 *315:48 *1005:40 0
34 *334:12 *1005:40 0
35 *1001:18 *1005:21 0.000341274
36 *1001:18 *1005:30 0
37 *1001:31 *1005:30 0.000128351
38 *1003:33 *1005:40 0
*RES
1 *1764:X *1005:8 24.0568 
2 *1005:8 *1765:A 20.572 
3 *1005:8 *1005:21 4.5848 
4 *1005:21 *1327:A 20.2728 
5 *1005:21 *1005:30 2.4112 
6 *1005:30 *1005:40 42.5608 
7 *1005:40 *1315:B 20 
8 *1005:30 *1281:A2 20 
*END

*D_NET *1006 0.00405426
*CONN
*I *1330:A I *D sg13g2_nor2_1
*I *1766:A I *D sg13g2_buf_2
*I *1287:A I *D sg13g2_inv_1
*I *1336:B I *D sg13g2_nor3_1
*I *1300:A1 I *D sg13g2_a21oi_1
*I *1297:A I *D sg13g2_nor2b_1
*I *1765:X O *D sg13g2_buf_1
*CAP
1 *1330:A 0
2 *1766:A 4.70322e-05
3 *1287:A 8.48147e-05
4 *1336:B 2.74848e-05
5 *1300:A1 0.000164822
6 *1297:A 0.000198601
7 *1765:X 1.82693e-05
8 *1006:60 0.00042056
9 *1006:40 0.000167797
10 *1006:36 0.000688372
11 *1006:23 0.000574088
12 *1006:6 0.00036679
13 *1297:A *1300:B1 0
14 *1300:A1 *1300:B1 0.00012044
15 *1336:B *1336:A 0
16 *1766:A *1333:A1 0.000153337
17 *1006:23 *1009:112 0
18 *1006:36 *1008:55 7.89572e-05
19 *1006:36 *1009:131 0
20 *1006:60 *1331:A1 0
21 *1006:60 *1007:10 0
22 *1006:60 *1008:55 0.000243027
23 *1296:A2 *1336:B 0
24 *1298:B1 *1297:A 7.53965e-05
25 *1298:B1 *1300:A1 0
26 *1304:C1 *1287:A 0
27 *1304:A2 *1287:A 0.000234832
28 *1304:A2 *1006:40 0.000128161
29 *1326:B *1300:A1 3.13914e-05
30 *1336:C *1006:36 0
31 *22:20 *1006:36 0
32 *22:28 *1300:A1 2.20968e-05
33 *22:28 *1006:23 4.67219e-05
34 *315:8 *1006:23 0.000146063
35 *328:8 *1300:A1 1.52019e-05
36 *329:10 *1300:A1 0
37 *359:8 *1006:60 0
38 *360:10 *1006:36 0
39 *360:10 *1006:60 0
40 *365:14 *1287:A 0
41 *1002:108 *1006:60 0
42 *1005:21 *1297:A 0
43 *1005:21 *1006:6 0
*RES
1 *1765:X *1006:6 20.1936 
2 *1006:6 *1297:A 21.9888 
3 *1006:6 *1006:23 21.3816 
4 *1006:23 *1300:A1 41.628 
5 *1006:23 *1006:36 1.936 
6 *1006:36 *1006:40 20.5104 
7 *1006:40 *1336:B 20.2728 
8 *1006:40 *1287:A 21.2056 
9 *1006:36 *1006:60 23.2296 
10 *1006:60 *1766:A 20.6094 
11 *1006:60 *1330:A 20 
*END

*D_NET *1007 0.00999977
*CONN
*I *1333:A1 I *D sg13g2_o21ai_1
*I *1291:A I *D sg13g2_or4_1
*I *1290:B I *D sg13g2_nand2b_1
*I *1344:A I *D sg13g2_nor2_1
*I *1280:A I *D sg13g2_nor3_1
*I *1301:B1 I *D sg13g2_o21ai_1
*I *1302:A I *D sg13g2_or3_1
*I *1331:A1 I *D sg13g2_a22oi_1
*I *1766:X O *D sg13g2_buf_2
*CAP
1 *1333:A1 0.000207472
2 *1291:A 0
3 *1290:B 0
4 *1344:A 0
5 *1280:A 0.000409558
6 *1301:B1 6.55335e-05
7 *1302:A 0
8 *1331:A1 0.000239069
9 *1766:X 0
10 *1007:104 0.000160032
11 *1007:86 0.000233383
12 *1007:74 0.000409095
13 *1007:57 0.00058527
14 *1007:55 0.000547323
15 *1007:38 0.000562706
16 *1007:31 7.55598e-05
17 *1007:25 0.000463232
18 *1007:10 0.000695334
19 *1007:4 0.000385946
20 *1007:104 *1009:74 7.92678e-05
21 *1276:B *1007:55 7.51688e-05
22 *1291:D *1280:A 0.00045169
23 *1299:B *1007:31 0
24 *1301:A1 *1007:38 7.51688e-05
25 *1302:B *1301:B1 0
26 *1302:B *1007:25 7.51291e-05
27 *1302:B *1007:38 0.000106065
28 *1302:C *1007:25 7.51684e-05
29 *1304:A2 *1007:25 0
30 *1325:A *1280:A 0
31 *1330:B *1333:A1 7.51684e-05
32 *1333:A2 *1333:A1 0
33 *1334:A0 *1007:25 0
34 *1334:A1 *1007:25 0
35 *1341:A *1301:B1 0
36 *1344:B *1007:86 0
37 *1345:B1 *1007:86 7.50643e-05
38 *1766:A *1333:A1 0.000153337
39 *21:47 *1280:A 0.00014364
40 *22:14 *1331:A1 0.000240227
41 *22:20 *1331:A1 8.03968e-05
42 *22:73 *1280:A 0.000624719
43 *22:73 *1007:74 0.000227067
44 *22:73 *1007:86 3.75524e-05
45 *315:39 *1007:74 0
46 *315:39 *1007:86 0
47 *323:12 *1331:A1 2.21365e-05
48 *324:8 *1331:A1 0
49 *350:31 *1007:55 0
50 *353:10 *1280:A 6.96049e-05
51 *360:10 *1331:A1 0
52 *363:10 *1301:B1 7.51684e-05
53 *363:10 *1007:25 0
54 *363:10 *1007:38 0
55 *374:10 *1280:A 0
56 *374:10 *1007:74 0
57 *374:10 *1007:104 7.90153e-05
58 *798:9 *1007:10 0
59 *1002:12 *1007:31 0
60 *1002:57 *1007:38 0.000287825
61 *1002:57 *1007:55 0.000128201
62 *1002:65 *1007:55 0.000180685
63 *1002:91 *1333:A1 0
64 *1002:108 *1007:25 0.000500143
65 *1004:25 *1333:A1 0
66 *1004:25 *1007:10 0
67 *1004:25 *1007:25 0.000925157
68 *1004:25 *1007:31 0
69 *1004:35 *1301:B1 2.21361e-05
70 *1004:35 *1007:38 7.53572e-05
71 *1006:60 *1331:A1 0
72 *1006:60 *1007:10 0
*RES
1 *1766:X *1007:4 20 
2 *1007:4 *1007:10 21.7864 
3 *1007:10 *1331:A1 42.0724 
4 *1007:10 *1007:25 24.1008 
5 *1007:25 *1007:31 40.4576 
6 *1007:31 *1302:A 20 
7 *1007:25 *1007:38 1.5664 
8 *1007:38 *1301:B1 20.7568 
9 *1007:38 *1007:55 43.9776 
10 *1007:55 *1007:57 20 
11 *1007:57 *1280:A 44.0612 
12 *1007:57 *1007:74 21.7446 
13 *1007:74 *1007:86 42.2682 
14 *1007:86 *1344:A 20 
15 *1007:74 *1290:B 20 
16 *1007:55 *1007:104 41.6016 
17 *1007:104 *1291:A 20 
18 *1007:4 *1333:A1 22.2572 
*END

*D_NET *1008 0.00685049
*CONN
*I *1334:S I *D sg13g2_mux2_1
*I *1336:A I *D sg13g2_nor3_1
*I *1768:A I *D sg13g2_buf_2
*I *1619:A I *D sg13g2_nand3_1
*I *1767:X O *D sg13g2_buf_1
*CAP
1 *1334:S 0
2 *1336:A 2.8635e-05
3 *1768:A 0.000516108
4 *1619:A 0.000117087
5 *1767:X 2.44079e-05
6 *1008:55 0.000215597
7 *1008:40 0.000978201
8 *1008:12 0.000946732
9 *1008:8 0.00107191
10 *1768:A *1619:B 0
11 *1768:A *1009:6 0.000113649
12 *1768:A *1009:10 0
13 *1008:40 *1009:131 0
14 *1296:A2 *1336:A 0
15 *1304:C1 *1008:40 0
16 *1331:B1 *1008:40 0
17 *1336:B *1336:A 0
18 *21:8 *1008:40 0
19 *323:12 *1336:A 0
20 *323:12 *1008:40 0.000393363
21 *359:8 *1008:55 0.000306584
22 *360:10 *1008:40 7.53572e-05
23 *365:14 *1008:40 0
24 *797:9 *1008:12 0
25 *797:9 *1008:40 0
26 *799:13 *1619:A 0.000304209
27 *799:13 *1008:12 0.000503768
28 *799:13 *1008:40 0.000307948
29 *1003:33 *1619:A 0
30 *1003:33 *1768:A 0
31 *1005:8 *1768:A 0.000624951
32 *1005:21 *1768:A 0
33 *1006:36 *1008:55 7.89572e-05
34 *1006:60 *1008:55 0.000243027
*RES
1 *1767:X *1008:8 40.1936 
2 *1008:8 *1008:12 23.0448 
3 *1008:12 *1619:A 21.21 
4 *1008:12 *1768:A 24.7278 
5 *1008:8 *1008:40 26.0984 
6 *1008:40 *1336:A 20.2728 
7 *1008:40 *1008:55 42.0504 
8 *1008:55 *1334:S 20 
*END

*D_NET *1009 0.0137928
*CONN
*I *1295:A_N I *D sg13g2_nand3b_1
*I *1300:B1 I *D sg13g2_a21oi_1
*I *1315:A I *D sg13g2_nor2_2
*I *1293:B2 I *D sg13g2_a221oi_1
*I *1343:A I *D sg13g2_and2_1
*I *1292:B1 I *D sg13g2_a21oi_1
*I *1279:A I *D sg13g2_nor2_1
*I *1273:A I *D sg13g2_inv_1
*I *1768:X O *D sg13g2_buf_2
*CAP
1 *1295:A_N 0
2 *1300:B1 4.20622e-05
3 *1315:A 0
4 *1293:B2 6.53765e-05
5 *1343:A 0.000132869
6 *1292:B1 0
7 *1279:A 8.99135e-05
8 *1273:A 0
9 *1768:X 9.49084e-05
10 *1009:131 0.000802596
11 *1009:112 0.0011612
12 *1009:74 0.000452149
13 *1009:58 0.000662324
14 *1009:54 0.000526018
15 *1009:42 0.000768585
16 *1009:27 0.000749006
17 *1009:17 0.000500108
18 *1009:10 0.000684901
19 *1009:6 0.00100084
20 *1279:B *1279:A 0
21 *1280:C *1293:B2 0
22 *1281:B1 *1279:A 0
23 *1281:B1 *1009:27 0
24 *1281:A1 *1009:27 0
25 *1291:C *1009:54 0.000401496
26 *1291:D *1009:54 0.000338416
27 *1292:A1 *1009:74 0
28 *1293:C1 *1293:B2 1.52045e-05
29 *1293:B1 *1293:B2 0
30 *1293:A2 *1009:42 0.000240956
31 *1297:A *1300:B1 0
32 *1297:B_N *1009:112 0.000275718
33 *1297:B_N *1009:131 0.000143199
34 *1298:A1 *1009:112 0
35 *1300:A1 *1300:B1 0.00012044
36 *1335:A *1343:A 0.000128161
37 *1336:C *1009:131 3.23414e-05
38 *1337:A *1343:A 7.51688e-05
39 *1343:B *1009:74 0
40 *1768:A *1009:6 0.000113649
41 *1768:A *1009:10 0
42 *21:8 *1009:131 0.000234265
43 *21:21 *1009:131 0.000606019
44 *21:47 *1009:54 8.00835e-05
45 *302:10 *1009:17 0
46 *305:32 *1009:54 0
47 *310:10 *1009:27 0.000286568
48 *315:8 *1009:112 0.000340618
49 *315:12 *1009:6 0
50 *315:12 *1009:10 0
51 *315:48 *1009:10 0
52 *315:48 *1009:17 0
53 *315:48 *1009:27 0.000869428
54 *315:48 *1009:42 0
55 *320:8 *1009:74 2.47742e-05
56 *321:10 *1009:74 0
57 *334:12 *1009:27 0
58 *334:82 *1009:54 0
59 *350:25 *1009:42 0
60 *354:10 *1279:A 7.51291e-05
61 *354:10 *1009:27 0.000181422
62 *374:10 *1009:74 0.000249055
63 *795:15 *1009:131 0.000438054
64 *800:11 *1009:131 0
65 *1001:10 *1009:112 0
66 *1003:33 *1009:10 0
67 *1004:97 *1293:B2 7.51291e-05
68 *1004:97 *1343:A 0.000125658
69 *1004:97 *1009:42 4.63959e-05
70 *1004:97 *1009:58 0.000177654
71 *1005:8 *1009:10 0
72 *1005:21 *1009:6 0
73 *1005:40 *1009:17 7.51684e-05
74 *1005:40 *1009:27 0.000210508
75 *1006:23 *1009:112 0
76 *1006:36 *1009:131 0
77 *1007:104 *1009:74 7.92678e-05
78 *1008:40 *1009:131 0
*RES
1 *1768:X *1009:6 21.0384 
2 *1009:6 *1009:10 5.0072 
3 *1009:10 *1273:A 20 
4 *1009:10 *1009:17 0.9328 
5 *1009:17 *1009:27 45.3064 
6 *1009:27 *1279:A 20.7832 
7 *1009:27 *1009:42 22.0768 
8 *1009:42 *1009:54 44.3912 
9 *1009:54 *1009:58 20.7216 
10 *1009:58 *1009:74 43.9842 
11 *1009:74 *1292:B1 20 
12 *1009:58 *1343:A 21.4784 
13 *1009:42 *1293:B2 40.7084 
14 *1009:17 *1315:A 20 
15 *1009:6 *1009:112 23.2296 
16 *1009:112 *1300:B1 40.4796 
17 *1009:112 *1009:131 46.7584 
18 *1009:131 *1295:A_N 40 
*END

*D_NET *1010 0.00790184
*CONN
*I *1425:A I *D sg13g2_nor2_1
*I *1405:A2 I *D sg13g2_a21oi_1
*I *1385:A I *D sg13g2_inv_1
*I *1422:B1 I *D sg13g2_o21ai_1
*I *1392:C I *D sg13g2_or3_1
*I *1769:X O *D sg13g2_buf_2
*CAP
1 *1425:A 0
2 *1405:A2 0.000725423
3 *1385:A 0
4 *1422:B1 0.000116488
5 *1392:C 0
6 *1769:X 0.000565731
7 *1010:63 0.000852229
8 *1010:50 0.000414282
9 *1010:40 0.000784134
10 *1010:29 0.000894147
11 *1010:14 0.000589986
12 *1010:10 0.000621103
13 *1405:A2 *1365:B 0.00012839
14 *1010:10 *1365:B 0
15 *1010:10 *1670:A 0
16 *1010:10 *1012:25 0
17 *1392:B *1010:29 0
18 *1401:A *1010:50 0
19 *1405:A1 *1405:A2 0
20 *1405:A1 *1010:50 0
21 *1405:B1 *1405:A2 0
22 *1406:B *1405:A2 0
23 *1412:A2 *1405:A2 0
24 *1420:B *1010:63 0
25 *1422:A2 *1422:B1 0
26 *1424:A *1422:B1 0
27 *1427:A2 *1010:40 0
28 *390:10 *1405:A2 0
29 *397:14 *1405:A2 0
30 *397:14 *1010:50 0
31 *397:14 *1010:63 1.54007e-05
32 *397:35 *1010:40 0
33 *397:35 *1010:50 0
34 *408:106 *1010:50 0
35 *410:16 *1422:B1 0
36 *410:16 *1010:40 0
37 *414:8 *1010:10 0
38 *417:10 *1010:10 0
39 *417:30 *1422:B1 0
40 *417:30 *1010:29 0.000553215
41 *421:8 *1010:50 0.000339666
42 *425:8 *1405:A2 0.000306756
43 *426:10 *1405:A2 0
44 *428:10 *1010:29 0
45 *429:10 *1010:63 0
46 *429:12 *1405:A2 0
47 *440:10 *1405:A2 0
48 *444:8 *1010:29 0
49 *449:10 *1010:40 0.000552212
50 *449:10 *1010:63 0.000159286
51 *452:14 *1010:29 0
52 *452:14 *1010:40 0
53 *688:40 *1010:14 0.000181611
54 *688:40 *1010:29 0
55 *690:33 *1010:10 0.000101779
*RES
1 *1769:X *1010:10 45.852 
2 *1010:10 *1010:14 20.7216 
3 *1010:14 *1392:C 20 
4 *1010:14 *1010:29 5.1392 
5 *1010:29 *1422:B1 20.968 
6 *1010:29 *1010:40 2.8336 
7 *1010:40 *1010:50 43.7488 
8 *1010:50 *1385:A 20 
9 *1010:40 *1010:63 21.4784 
10 *1010:63 *1405:A2 46.2832 
11 *1010:63 *1425:A 40 
*END

*D_NET *1011 0.00961393
*CONN
*I *1365:A I *D sg13g2_xor2_1
*I *1387:C I *D sg13g2_nand3_1
*I *1414:B I *D sg13g2_or4_1
*I *1376:A0 I *D sg13g2_mux2_1
*I *1398:B I *D sg13g2_or3_1
*I *1370:A I *D sg13g2_nor2_1
*I *1397:A1 I *D sg13g2_o21ai_1
*I *1389:A0 I *D sg13g2_mux2_1
*I *1770:X O *D sg13g2_buf_2
*CAP
1 *1365:A 0.000617863
2 *1387:C 0.000155424
3 *1414:B 3.77404e-05
4 *1376:A0 0
5 *1398:B 0
6 *1370:A 0
7 *1397:A1 0.000208644
8 *1389:A0 0
9 *1770:X 8.02924e-05
10 *1011:84 0.00027062
11 *1011:69 5.16675e-05
12 *1011:61 0.000496844
13 *1011:41 0.000612665
14 *1011:33 0.000716811
15 *1011:27 0.000541393
16 *1011:23 0.000628874
17 *1011:21 0.00109506
18 *1011:12 0.000249133
19 *1011:6 0.000698595
20 *1365:A *1365:B 0.000929783
21 *1365:A *1368:B 0.000293321
22 *1365:A *1013:27 0.000112679
23 *1387:C *1387:B 0.000392632
24 *1397:A1 *1370:B 0.000233222
25 *1397:A1 *1397:A2 7.50795e-05
26 *1414:B *1014:27 0
27 *1011:6 *1670:A 0
28 *1011:12 *1365:B 0
29 *1011:12 *1012:25 0
30 *1011:21 *1670:A 0
31 *1011:21 *1013:25 0
32 *1011:23 *1013:27 0.000210939
33 *1011:27 *1773:A 0
34 *1011:27 *1013:27 0
35 *1011:27 *1014:14 0.000275266
36 *1011:33 *1014:14 4.80223e-05
37 *1011:69 *1012:61 0
38 *1011:69 *1014:27 4.83259e-05
39 *1011:84 *1379:B_N 6.1871e-05
40 *1388:B1 *1365:A 7.47511e-05
41 *1414:C *1414:B 0
42 *1415:C *1387:C 0
43 *1770:A *1011:6 0
44 *13:46 *1011:84 4.66761e-05
45 *393:10 *1365:A 7.51291e-05
46 *395:10 *1011:41 0
47 *414:8 *1011:12 0
48 *693:23 *1397:A1 0
49 *693:23 *1011:41 0
50 *693:38 *1011:84 0
51 *693:49 *1011:41 0.000274601
52 *693:66 *1365:A 0
*RES
1 *1770:X *1011:6 20.616 
2 *1011:6 *1011:12 42.3056 
3 *1011:12 *1389:A0 20 
4 *1011:6 *1011:21 23.4672 
5 *1011:21 *1011:23 1.1968 
6 *1011:23 *1011:27 3.5288 
7 *1011:27 *1011:33 21.3904 
8 *1011:33 *1011:41 43.74 
9 *1011:41 *1397:A1 22.5058 
10 *1011:41 *1370:A 20 
11 *1011:33 *1011:61 1.3552 
12 *1011:61 *1011:69 40.4664 
13 *1011:69 *1398:B 20 
14 *1011:61 *1011:84 42.508 
15 *1011:84 *1376:A0 20 
16 *1011:27 *1414:B 40.2728 
17 *1011:23 *1387:C 41.7776 
18 *1011:21 *1365:A 46.7584 
*END

*D_NET *1012 0.0117208
*CONN
*I *1398:C I *D sg13g2_or3_1
*I *1380:B I *D sg13g2_nor3_1
*I *1377:A I *D sg13g2_inv_1
*I *1370:B I *D sg13g2_nor2_1
*I *1397:A2 I *D sg13g2_o21ai_1
*I *1365:B I *D sg13g2_xor2_1
*I *1389:S I *D sg13g2_mux2_1
*I *1664:A I *D sg13g2_nand3_1
*I *1771:X O *D sg13g2_buf_2
*CAP
1 *1398:C 1.65111e-05
2 *1380:B 0
3 *1377:A 0.000125292
4 *1370:B 7.27075e-05
5 *1397:A2 0.000179878
6 *1365:B 0.000845386
7 *1389:S 0
8 *1664:A 0.000176292
9 *1771:X 4.99384e-05
10 *1012:97 0.000601486
11 *1012:65 0.000582449
12 *1012:61 0.000974951
13 *1012:57 0.000767901
14 *1012:25 0.00121845
15 *1012:14 0.00109522
16 *1012:8 0.00117829
17 *1377:A *1379:B_N 0
18 *1377:A *1380:A 0
19 *1398:C *1014:27 7.50643e-05
20 *1012:14 *1899:RESET_B 0
21 *1012:57 *1014:27 0
22 *1012:61 *1014:27 0
23 *1012:65 *1397:B1 0
24 *1012:97 *1379:B_N 0
25 *1012:97 *1380:A 0
26 *1365:A *1365:B 0.000929783
27 *1380:C *1377:A 0
28 *1380:C *1012:97 3.1684e-05
29 *1381:A *1377:A 0
30 *1389:A1 *1365:B 0
31 *1396:A2 *1365:B 0.000865578
32 *1397:A1 *1370:B 0.000233222
33 *1397:A1 *1397:A2 7.50795e-05
34 *1405:A1 *1365:B 0.000593829
35 *1405:A2 *1365:B 0.00012839
36 *1409:A *1012:61 0
37 *1409:B *1012:61 4.6523e-05
38 *1409:B *1012:65 0
39 *1414:C *1012:57 0
40 *1671:A *1664:A 0.00062401
41 *1671:A *1012:14 0
42 *13:23 *1012:57 0
43 *13:25 *1012:61 0
44 *13:34 *1012:61 0
45 *17:8 *1012:14 0
46 *17:8 *1012:57 0
47 *395:10 *1012:65 0
48 *397:14 *1012:57 0
49 *397:14 *1012:65 0
50 *402:10 *1377:A 2.20968e-05
51 *402:10 *1012:97 0
52 *405:8 *1012:97 0.000210746
53 *414:8 *1365:B 0
54 *434:10 *1012:57 0
55 *691:8 *1012:8 0
56 *691:8 *1012:14 0
57 *691:8 *1012:57 0
58 *693:23 *1370:B 0
59 *693:49 *1012:57 0
60 *693:66 *1365:B 0
61 *834:19 *1012:14 0
62 *1010:10 *1365:B 0
63 *1010:10 *1012:25 0
64 *1011:12 *1365:B 0
65 *1011:12 *1012:25 0
66 *1011:69 *1012:61 0
*RES
1 *1771:X *1012:8 20.4664 
2 *1012:8 *1012:14 25.2712 
3 *1012:14 *1664:A 42.4772 
4 *1012:14 *1012:25 3.4144 
5 *1012:25 *1389:S 40 
6 *1012:25 *1365:B 49.6448 
7 *1012:8 *1012:57 44.356 
8 *1012:57 *1012:61 1.5752 
9 *1012:61 *1012:65 22.86 
10 *1012:65 *1397:A2 41.6632 
11 *1012:65 *1370:B 40.9328 
12 *1012:61 *1012:97 43.8808 
13 *1012:97 *1377:A 21.3552 
14 *1012:97 *1380:B 20 
15 *1012:57 *1398:C 20.2992 
*END

*D_NET *1013 0.00838835
*CONN
*I *1368:B I *D sg13g2_and2_2
*I *1387:B I *D sg13g2_nand3_1
*I *1773:A I *D sg13g2_buf_2
*I *1668:A I *D sg13g2_nand3_1
*I *1772:X O *D sg13g2_buf_1
*CAP
1 *1368:B 0.000201432
2 *1387:B 0.000149739
3 *1773:A 0.0002315
4 *1668:A 7.61245e-05
5 *1772:X 0.000490588
6 *1013:27 0.000563661
7 *1013:25 0.00135022
8 *1013:12 0.00104249
9 *1013:10 0.000490588
10 *1773:A *1014:14 4.77421e-05
11 *1013:10 *1020:49 0
12 *1013:10 *1027:34 0
13 *1365:A *1368:B 0.000293321
14 *1365:A *1013:27 0.000112679
15 *1387:C *1387:B 0.000392632
16 *1389:A1 *1013:25 0
17 *1770:A *1013:25 0.000287637
18 *17:8 *1773:A 8.67299e-05
19 *162:10 *1013:10 0.000112425
20 *408:14 *1387:B 0.000286254
21 *408:70 *1368:B 0
22 *408:70 *1013:27 0
23 *439:8 *1773:A 0.000307411
24 *439:8 *1013:27 0.000276188
25 *690:33 *1668:A 0
26 *690:33 *1013:25 0.000831825
27 *693:66 *1368:B 0.000128201
28 *693:66 *1013:25 0
29 *832:25 *1013:10 0
30 *833:9 *1013:10 0
31 *834:19 *1013:10 0
32 *975:16 *1013:10 0.000240662
33 *975:26 *1013:10 0.000177361
34 *1011:21 *1013:25 0
35 *1011:23 *1013:27 0.000210939
36 *1011:27 *1773:A 0
37 *1011:27 *1013:27 0
*RES
1 *1772:X *1013:10 44.2152 
2 *1013:10 *1013:12 20 
3 *1013:12 *1668:A 20.5764 
4 *1013:12 *1013:25 30.2872 
5 *1013:25 *1013:27 1.936 
6 *1013:27 *1773:A 42.0966 
7 *1013:27 *1387:B 42.123 
8 *1013:25 *1368:B 42.2616 
*END

*D_NET *1014 0.0056286
*CONN
*I *1383:B I *D sg13g2_or2_2
*I *1376:S I *D sg13g2_mux2_1
*I *1379:B_N I *D sg13g2_nor2b_1
*I *1380:A I *D sg13g2_nor3_1
*I *1372:B1 I *D sg13g2_a21oi_2
*I *1397:B1 I *D sg13g2_o21ai_1
*I *1398:A I *D sg13g2_or3_1
*I *1414:A I *D sg13g2_or4_1
*I *1773:X O *D sg13g2_buf_2
*CAP
1 *1383:B 0.00017599
2 *1376:S 0
3 *1379:B_N 0.000293921
4 *1380:A 0.000151529
5 *1372:B1 2.36837e-05
6 *1397:B1 0.000277891
7 *1398:A 0
8 *1414:A 3.09406e-05
9 *1773:X 0
10 *1014:71 0.000350854
11 *1014:53 0.000175212
12 *1014:38 0.000448585
13 *1014:34 0.000326059
14 *1014:27 0.000363813
15 *1014:14 0.000546095
16 *1014:4 0.000425762
17 *1377:A *1379:B_N 0
18 *1377:A *1380:A 0
19 *1380:C *1379:B_N 0
20 *1380:C *1380:A 0.000159435
21 *1381:A *1380:A 0
22 *1398:C *1014:27 7.50643e-05
23 *1409:B *1014:27 0
24 *1414:B *1014:27 0
25 *1773:A *1014:14 4.77421e-05
26 *13:23 *1414:A 0
27 *13:23 *1014:27 0
28 *13:34 *1372:B1 7.51291e-05
29 *13:34 *1380:A 0.000181233
30 *17:8 *1014:34 0
31 *397:8 *1372:B1 2.20968e-05
32 *397:14 *1397:B1 4.77421e-05
33 *397:14 *1014:38 0.000291181
34 *406:14 *1014:38 0.000241899
35 *408:10 *1383:B 0.000101685
36 *422:10 *1397:B1 2.19969e-05
37 *434:10 *1014:27 0.000339582
38 *439:8 *1014:14 0
39 *693:23 *1397:B1 0
40 *693:38 *1380:A 0
41 *693:49 *1014:14 0
42 *835:19 *1383:B 0
43 *1011:27 *1014:14 0.000275266
44 *1011:33 *1014:14 4.80223e-05
45 *1011:69 *1014:27 4.83259e-05
46 *1011:84 *1379:B_N 6.1871e-05
47 *1012:57 *1014:27 0
48 *1012:61 *1014:27 0
49 *1012:65 *1397:B1 0
50 *1012:97 *1379:B_N 0
51 *1012:97 *1380:A 0
*RES
1 *1773:X *1014:4 20 
2 *1014:4 *1014:14 42.244 
3 *1014:14 *1414:A 20.253 
4 *1014:14 *1014:27 2.7456 
5 *1014:27 *1398:A 20 
6 *1014:27 *1014:34 0.7216 
7 *1014:34 *1014:38 21.7512 
8 *1014:38 *1397:B1 42.3496 
9 *1014:38 *1014:53 20 
10 *1014:53 *1372:B1 20.2992 
11 *1014:53 *1380:A 21.628 
12 *1014:34 *1014:71 0.5104 
13 *1014:71 *1379:B_N 22.5344 
14 *1014:71 *1376:S 20 
15 *1014:4 *1383:B 21.4168 
*END

*D_NET *1015 0.00513192
*CONN
*I *1501:A1 I *D sg13g2_a221oi_1
*I *1493:A1 I *D sg13g2_a22oi_1
*I *1492:A I *D sg13g2_nor2b_1
*I *1484:A I *D sg13g2_xor2_1
*I *1775:A I *D sg13g2_buf_2
*I *1774:X O *D sg13g2_buf_2
*CAP
1 *1501:A1 0.000313917
2 *1493:A1 1.95123e-05
3 *1492:A 0
4 *1484:A 6.33314e-05
5 *1775:A 0
6 *1774:X 0.000151258
7 *1015:40 1.95123e-05
8 *1015:38 0.000472405
9 *1015:25 0.00066233
10 *1015:14 0.000301252
11 *1015:6 0.000893021
12 *1015:6 *1019:80 0
13 *1015:25 *1019:80 0
14 *1483:A0 *1015:25 0.000286249
15 *1484:B *1015:25 0
16 *1492:B_N *1015:38 0
17 *1493:B2 *1493:A1 2.66105e-05
18 *1501:C1 *1501:A1 0
19 *1717:A *1015:14 0
20 *478:27 *1501:A1 0
21 *491:12 *1015:14 0.000536896
22 *500:10 *1015:25 0.00070911
23 *500:16 *1015:25 0.000128112
24 *500:16 *1015:38 0.000127923
25 *500:29 *1015:38 0
26 *506:25 *1501:A1 0
27 *512:12 *1493:A1 0.000101779
28 *513:8 *1493:A1 7.51688e-05
29 *513:14 *1501:A1 0.000243533
30 *514:10 *1501:A1 0
31 *705:27 *1015:6 0
32 *707:29 *1015:14 0
*RES
1 *1774:X *1015:6 21.2496 
2 *1015:6 *1015:14 43.179 
3 *1015:14 *1775:A 20 
4 *1015:6 *1015:25 5.3064 
5 *1015:25 *1484:A 20.6424 
6 *1015:25 *1015:38 21.5224 
7 *1015:38 *1015:40 20 
8 *1015:40 *1492:A 20 
9 *1015:40 *1493:A1 20.4048 
10 *1015:38 *1501:A1 42.9568 
*END

*D_NET *1016 0.00831139
*CONN
*I *1471:S I *D sg13g2_mux2_1
*I *1464:B I *D sg13g2_or3_1
*I *1473:A1 I *D sg13g2_o21ai_1
*I *1463:B I *D sg13g2_nand2_1
*I *1489:A I *D sg13g2_xor2_1
*I *1456:B I *D sg13g2_nor4_1
*I *1460:A I *D sg13g2_nor2_1
*I *1467:A_N I *D sg13g2_nand2b_1
*I *1775:X O *D sg13g2_buf_2
*CAP
1 *1471:S 3.50011e-05
2 *1464:B 9.6706e-05
3 *1473:A1 0.000107519
4 *1463:B 8.15063e-05
5 *1489:A 0.000202083
6 *1456:B 0.000120557
7 *1460:A 0.000272083
8 *1467:A_N 0.000266825
9 *1775:X 0.000314464
10 *1016:81 0.00016159
11 *1016:75 0.000327929
12 *1016:64 0.000367954
13 *1016:49 0.000425698
14 *1016:38 0.000367146
15 *1016:16 0.000538907
16 *1016:14 0.000208058
17 *1016:10 0.000425254
18 *1463:B *1018:28 7.51291e-05
19 *1464:B *1474:A 0
20 *1464:B *1018:75 0.000128578
21 *1464:B *1019:10 0.000234832
22 *1467:A_N *1469:A1 7.51688e-05
23 *1473:A1 *1474:A 4.65959e-05
24 *1473:A1 *1019:22 0
25 *1489:A *1472:A1 0.000341085
26 *1016:10 *1019:55 0
27 *1016:75 *1018:75 0.000242285
28 *1460:B *1460:A 2.21754e-05
29 *1464:C *1464:B 3.49263e-05
30 *1464:C *1473:A1 0.000205638
31 *1465:B1 *1463:B 7.51688e-05
32 *1465:B1 *1016:49 0.000129558
33 *1465:B1 *1016:64 0.000177614
34 *1465:B1 *1016:75 1.54007e-05
35 *1469:B1 *1467:A_N 0
36 *1469:B1 *1471:S 0.000181383
37 *1469:B1 *1016:10 0
38 *1469:A2 *1467:A_N 0
39 *1471:A1 *1016:10 0
40 *1490:A0 *1489:A 7.53575e-05
41 *1490:S *1489:A 0
42 *1778:A *1016:75 0
43 *15:29 *1460:A 0
44 *15:29 *1467:A_N 0
45 *15:29 *1016:38 0.000144766
46 *15:29 *1016:49 4.78029e-05
47 *477:10 *1456:B 7.51291e-05
48 *477:10 *1016:49 0
49 *477:10 *1016:64 0
50 *478:8 *1463:B 0
51 *478:8 *1489:A 0.000500371
52 *489:8 *1016:10 4.8786e-05
53 *490:10 *1460:A 0.000371793
54 *490:10 *1467:A_N 2.20968e-05
55 *490:10 *1471:S 0.000181383
56 *491:12 *1460:A 0
57 *491:12 *1016:10 0
58 *492:10 *1460:A 0.000500411
59 *495:12 *1473:A1 0
60 *707:10 *1467:A_N 0
61 *707:18 *1456:B 3.86694e-05
62 *707:25 *1460:A 0
63 *707:29 *1016:10 0
64 *707:81 *1460:A 0
*RES
1 *1775:X *1016:10 43.0536 
2 *1016:10 *1016:14 0.7568 
3 *1016:14 *1016:16 20 
4 *1016:16 *1467:A_N 22.2352 
5 *1016:16 *1460:A 23.3792 
6 *1016:14 *1016:38 1.1968 
7 *1016:38 *1456:B 40.9328 
8 *1016:38 *1016:49 1.012 
9 *1016:49 *1489:A 42.9304 
10 *1016:49 *1016:64 1.012 
11 *1016:64 *1463:B 40.7216 
12 *1016:64 *1016:75 1.7512 
13 *1016:75 *1016:81 40.5104 
14 *1016:81 *1473:A1 41.089 
15 *1016:75 *1464:B 41.3442 
16 *1016:10 *1471:S 40.7216 
*END

*D_NET *1017 0.00476714
*CONN
*I *1485:B I *D sg13g2_nor2_2
*I *1777:A I *D sg13g2_buf_2
*I *1491:B I *D sg13g2_nand2b_1
*I *1721:A I *D sg13g2_nand3_1
*I *1776:X O *D sg13g2_buf_2
*CAP
1 *1485:B 0
2 *1777:A 0.000152562
3 *1491:B 1.65732e-05
4 *1721:A 0.000577865
5 *1776:X 0
6 *1017:34 0.000345897
7 *1017:21 0.00112549
8 *1017:4 0.00149344
9 *1777:A *1019:80 0
10 *1461:B *1777:A 0
11 *1501:C1 *1777:A 0
12 *1776:A *1017:21 3.36976e-05
13 *1920:CLK *1721:A 0
14 *1920:D *1721:A 0
15 *200:10 *1721:A 0
16 *478:27 *1017:21 0
17 *478:27 *1017:34 0
18 *478:39 *1017:21 0
19 *498:25 *1017:21 0.000307379
20 *498:25 *1017:34 0.000325916
21 *498:27 *1017:21 0.000308242
22 *498:35 *1017:21 8.00835e-05
23 *498:45 *1017:21 0
24 *534:53 *1017:21 0
25 *708:10 *1017:21 0
*RES
1 *1776:X *1017:4 20 
2 *1017:4 *1721:A 26.1116 
3 *1017:4 *1017:21 28.8616 
4 *1017:21 *1491:B 40.1782 
5 *1017:21 *1017:34 21.936 
6 *1017:34 *1777:A 21.5796 
7 *1017:34 *1485:B 20 
*END

*D_NET *1018 0.00824014
*CONN
*I *1461:A I *D sg13g2_nor2_1
*I *1476:B I *D sg13g2_nor3_1
*I *1473:B1 I *D sg13g2_o21ai_1
*I *1463:A I *D sg13g2_nand2_1
*I *1464:A I *D sg13g2_or3_1
*I *1456:A I *D sg13g2_nor4_1
*I *1469:A1 I *D sg13g2_o21ai_1
*I *1452:B_N I *D sg13g2_nor2b_1
*I *1777:X O *D sg13g2_buf_2
*CAP
1 *1461:A 0
2 *1476:B 0.000225527
3 *1473:B1 0.000306892
4 *1463:A 0
5 *1464:A 0
6 *1456:A 0
7 *1469:A1 0.000268996
8 *1452:B_N 0.000147222
9 *1777:X 0.000157045
10 *1018:99 0.000674709
11 *1018:86 5.3274e-05
12 *1018:75 0.000274212
13 *1018:41 0.000482011
14 *1018:28 0.00054412
15 *1018:24 0.000545619
16 *1018:22 0.000339623
17 *1018:18 0.00101005
18 *1018:8 0.000825984
19 *1452:B_N *1019:10 0
20 *1469:A1 *1019:53 0
21 *1469:A1 *1019:55 0
22 *1473:B1 *1474:A 0
23 *1473:B1 *1019:22 0
24 *1476:B *1476:A 0
25 *1018:22 *1019:22 0
26 *1018:24 *1019:22 0
27 *1018:28 *1019:10 0
28 *1018:41 *1019:51 0
29 *1018:41 *1019:53 0
30 *1018:99 *1019:22 0.000112425
31 *1452:A *1452:B_N 7.51688e-05
32 *1457:A *1452:B_N 0
33 *1460:B *1018:8 0
34 *1460:B *1018:18 0
35 *1463:B *1018:28 7.51291e-05
36 *1464:B *1018:75 0.000128578
37 *1464:C *1473:B1 0
38 *1464:C *1018:75 0.000128389
39 *1465:A1 *1018:22 0
40 *1465:B1 *1018:22 0.000159286
41 *1465:B1 *1018:24 0.000181383
42 *1465:B1 *1018:28 0
43 *1465:B1 *1018:75 0
44 *1466:A2 *1473:B1 0
45 *1466:A2 *1476:B 7.51688e-05
46 *1467:B *1469:A1 0.000112425
47 *1467:A_N *1469:A1 7.51688e-05
48 *1469:A2 *1469:A1 0
49 *1475:A2 *1473:B1 2.20968e-05
50 *1475:B1 *1473:B1 2.21365e-05
51 *1489:B *1018:18 0
52 *15:10 *1469:A1 0.000144766
53 *16:10 *1452:B_N 0
54 *473:6 *1452:B_N 0
55 *473:23 *1018:41 0
56 *481:6 *1018:18 0
57 *485:6 *1473:B1 0
58 *485:14 *1018:18 0
59 *486:10 *1018:22 0.000446962
60 *487:10 *1473:B1 2.20968e-05
61 *487:10 *1476:B 5.30323e-05
62 *487:10 *1018:18 0
63 *487:10 *1018:99 0.000135958
64 *493:10 *1018:18 0
65 *493:29 *1476:B 0
66 *495:12 *1473:B1 2.20968e-05
67 *495:12 *1018:75 0
68 *496:12 *1473:B1 0
69 *498:25 *1018:18 0
70 *707:18 *1469:A1 0
71 *707:61 *1473:B1 2.20968e-05
72 *707:61 *1018:18 0
73 *707:61 *1018:75 0
74 *709:8 *1452:B_N 0.000128201
75 *1016:75 *1018:75 0.000242285
*RES
1 *1777:X *1018:8 21.6016 
2 *1018:8 *1018:18 24.6288 
3 *1018:18 *1018:22 22.2 
4 *1018:22 *1018:24 0.9328 
5 *1018:24 *1018:28 1.628 
6 *1018:28 *1452:B_N 21.4168 
7 *1018:28 *1018:41 21.7512 
8 *1018:41 *1469:A1 42.4244 
9 *1018:41 *1456:A 40 
10 *1018:24 *1018:75 43.0448 
11 *1018:75 *1464:A 20 
12 *1018:22 *1018:86 40.4576 
13 *1018:86 *1463:A 20 
14 *1018:18 *1018:99 21.584 
15 *1018:99 *1473:B1 22.4992 
16 *1018:99 *1476:B 22.024 
17 *1018:8 *1461:A 20 
*END

*D_NET *1019 0.0103713
*CONN
*I *1472:A1 I *D sg13g2_a221oi_1
*I *1455:A I *D sg13g2_nor2_1
*I *1491:A_N I *D sg13g2_nand2b_1
*I *1485:A I *D sg13g2_nor2_2
*I *1724:A I *D sg13g2_nand3_1
*I *1474:A I *D sg13g2_inv_1
*I *1476:A I *D sg13g2_nor3_1
*I *1466:B1 I *D sg13g2_a21oi_1
*I *1778:X O *D sg13g2_buf_2
*CAP
1 *1472:A1 0.0002975
2 *1455:A 0
3 *1491:A_N 0
4 *1485:A 0
5 *1724:A 0.000543774
6 *1474:A 4.47024e-05
7 *1476:A 0.000182294
8 *1466:B1 0
9 *1778:X 2.00671e-05
10 *1019:86 0.000191143
11 *1019:80 0.000955763
12 *1019:55 0.0018195
13 *1019:53 0.000559446
14 *1019:51 0.000624538
15 *1019:22 0.000807726
16 *1019:10 0.000921086
17 *1019:6 0.000549718
18 *1452:A *1019:51 8.01437e-05
19 *1452:B_N *1019:10 0
20 *1456:D *1472:A1 0.000234604
21 *1464:B *1474:A 0
22 *1464:B *1019:10 0.000234832
23 *1464:C *1019:10 0
24 *1466:A1 *1476:A 0.000181232
25 *1466:A2 *1476:A 0
26 *1467:B *1019:55 0
27 *1469:A1 *1019:53 0
28 *1469:A1 *1019:55 0
29 *1472:B2 *1472:A1 0
30 *1473:B1 *1474:A 0
31 *1473:B1 *1019:22 0
32 *1473:A1 *1474:A 4.65959e-05
33 *1473:A1 *1019:22 0
34 *1475:A2 *1476:A 0
35 *1476:B *1476:A 0
36 *1489:A *1472:A1 0.000341085
37 *1490:A0 *1472:A1 0
38 *1717:A *1724:A 0.00036068
39 *1717:A *1019:80 0
40 *1718:A2 *1724:A 1.53311e-05
41 *1777:A *1019:80 0
42 *1778:A *1019:51 0.00022776
43 *15:10 *1019:55 0
44 *473:6 *1472:A1 0
45 *473:23 *1472:A1 0.000446961
46 *485:14 *1019:22 0
47 *486:10 *1019:22 0
48 *487:30 *1476:A 0
49 *495:12 *1019:22 0
50 *496:12 *1019:22 0.000230839
51 *498:25 *1019:86 0.000341553
52 *704:32 *1724:A 0
53 *989:50 *1724:A 0
54 *989:50 *1019:55 0
55 *1015:6 *1019:80 0
56 *1015:25 *1019:80 0
57 *1016:10 *1019:55 0
58 *1018:22 *1019:22 0
59 *1018:24 *1019:22 0
60 *1018:28 *1019:10 0
61 *1018:41 *1019:51 0
62 *1018:41 *1019:53 0
63 *1018:99 *1019:22 0.000112425
*RES
1 *1778:X *1019:6 20.1936 
2 *1019:6 *1019:10 2.4728 
3 *1019:10 *1019:22 44.9676 
4 *1019:22 *1466:B1 20 
5 *1019:22 *1476:A 21.8084 
6 *1019:10 *1474:A 20.4576 
7 *1019:6 *1019:51 22.86 
8 *1019:51 *1019:53 0.4576 
9 *1019:53 *1019:55 5.2624 
10 *1019:55 *1724:A 45.4868 
11 *1019:55 *1019:80 27.48 
12 *1019:80 *1019:86 41.936 
13 *1019:86 *1485:A 20 
14 *1019:80 *1491:A_N 20 
15 *1019:53 *1455:A 40 
16 *1019:51 *1472:A1 43.7136 
*END

*D_NET *1020 0.00981699
*CONN
*I *1658:B I *D sg13g2_nand3_1
*I *1647:B I *D sg13g2_nand3_1
*I *1653:B I *D sg13g2_nand3_1
*I *1650:B I *D sg13g2_nand3_1
*I *1668:B I *D sg13g2_nand3_1
*I *1671:B I *D sg13g2_nand3_1
*I *1664:B I *D sg13g2_nand3_1
*I *1661:B I *D sg13g2_nand3_1
*I *1779:X O *D sg13g2_buf_2
*CAP
1 *1658:B 0
2 *1647:B 5.11489e-05
3 *1653:B 0.000117956
4 *1650:B 0.000107624
5 *1668:B 8.11738e-05
6 *1671:B 0.000122134
7 *1664:B 3.87439e-05
8 *1661:B 0
9 *1779:X 0.000173121
10 *1020:135 0.000412512
11 *1020:94 0.00022558
12 *1020:57 0.000218152
13 *1020:49 0.000662712
14 *1020:38 0.000190539
15 *1020:22 0.000551708
16 *1020:20 0.000414342
17 *1020:18 0.000770572
18 *1020:12 0.000833466
19 *1020:8 0.000930547
20 *1650:B *1653:C 7.51684e-05
21 *1653:B *1653:C 0.000234604
22 *1653:B *1057:10 0
23 *1668:B *1031:32 0
24 *1671:B *1670:A 0
25 *1020:8 *1031:10 4.8613e-05
26 *1020:8 *1031:107 4.8613e-05
27 *1020:12 *1031:10 0.00058719
28 *1020:12 *1031:107 4.77421e-05
29 *1020:18 *1653:C 0.000123192
30 *1020:18 *1031:10 4.7566e-05
31 *1020:18 *1031:12 0.000536232
32 *1020:18 *1031:18 0
33 *1020:18 *1057:10 0
34 *1020:20 *1031:18 0
35 *1020:20 *1057:10 0
36 *1020:38 *1031:18 4.7566e-05
37 *1020:38 *1031:22 0.00023677
38 *1020:38 *1031:32 0
39 *1020:49 *1031:22 5.3594e-05
40 *1020:49 *1031:43 0.000850005
41 *1020:57 *1031:43 4.7709e-05
42 *1020:57 *1031:49 0.000234798
43 *1020:135 *1031:107 5.30323e-05
44 *1650:A *1650:B 0
45 *1651:A2 *1650:B 0
46 *1658:C *1020:135 0.000341274
47 *1659:B1 *1020:8 0
48 *1661:A *1020:20 0
49 *1665:A2 *1664:B 0
50 *1665:B1 *1020:57 0
51 *1669:A2 *1668:B 0
52 *1671:A *1664:B 4.15789e-05
53 *1671:A *1671:B 0
54 *1672:A2 *1664:B 0
55 *1672:A2 *1671:B 0
56 *1790:A *1020:12 0
57 *1790:A *1020:135 0
58 *150:10 *1020:18 0
59 *154:10 *1020:135 0.000181611
60 *209:35 *1020:8 0
61 *209:35 *1020:12 0
62 *686:14 *1020:12 0
63 *686:14 *1020:18 0
64 *690:33 *1668:B 0
65 *830:15 *1020:20 0
66 *830:15 *1020:38 7.81028e-05
67 *975:10 *1020:12 0
68 *975:16 *1020:20 0
69 *984:66 *1020:8 0
70 *984:66 *1020:135 0
71 *984:77 *1020:135 0
72 *992:33 *1020:38 0
73 *1013:10 *1020:49 0
*RES
1 *1779:X *1020:8 21.5224 
2 *1020:8 *1020:12 23.5992 
3 *1020:12 *1020:18 4.3824 
4 *1020:18 *1020:20 3.0448 
5 *1020:20 *1020:22 20 
6 *1020:22 *1020:38 42.079 
7 *1020:38 *1661:B 20 
8 *1020:22 *1020:49 24.1888 
9 *1020:49 *1020:57 42.024 
10 *1020:57 *1664:B 40.4378 
11 *1020:49 *1671:B 40.8602 
12 *1020:20 *1668:B 40.6446 
13 *1020:18 *1020:94 20 
14 *1020:94 *1650:B 21.089 
15 *1020:94 *1653:B 21.4938 
16 *1020:12 *1647:B 40.4378 
17 *1020:8 *1020:135 44.3494 
18 *1020:135 *1658:B 20 
*END

*D_NET *1021 0.0109718
*CONN
*I *1180:A2 I *D sg13g2_a21oi_1
*I *1544:B I *D sg13g2_nand3_1
*I *1547:B I *D sg13g2_nand3_1
*I *1550:B I *D sg13g2_nand3_1
*I *1557:B I *D sg13g2_nand3_1
*I *1553:B I *D sg13g2_nand3_1
*I *1568:B I *D sg13g2_nand3_1
*I *1560:B I *D sg13g2_nand3_1
*I *1780:X O *D sg13g2_buf_2
*CAP
1 *1180:A2 0.000618024
2 *1544:B 0.00013299
3 *1547:B 8.97489e-05
4 *1550:B 9.58169e-05
5 *1557:B 0.000463598
6 *1553:B 4.90501e-05
7 *1568:B 3.97198e-05
8 *1560:B 0.000399688
9 *1780:X 0.000136831
10 *1021:67 0.000928148
11 *1021:65 0.00082709
12 *1021:63 0.00107704
13 *1021:57 0.00135134
14 *1021:12 0.000836689
15 *1021:10 0.000775584
16 *1021:8 0.000623952
17 *1180:A2 *1029:20 0
18 *1180:A2 *1029:76 0.000242298
19 *1544:B *1544:C 0.00012839
20 *1550:B *1550:C 7.51688e-05
21 *1550:B *1025:71 0
22 *1557:B *1098:8 0.000340679
23 *1560:B *1029:82 0
24 *1560:B *1029:92 0
25 *1560:B *1070:10 0
26 *1568:B *1029:92 5.68871e-05
27 *1021:10 *1029:76 0
28 *1021:12 *1029:76 0
29 *1021:12 *1029:82 0
30 *1021:57 *1029:76 0
31 *1021:67 *1098:8 3.25342e-05
32 *1209:B *1021:65 0
33 *1209:C *1021:67 0
34 *1545:A2 *1544:B 2.21754e-05
35 *1547:A *1547:B 3.86694e-05
36 *1548:A2 *1547:B 2.20968e-05
37 *1551:A2 *1550:B 0
38 *1557:A *1557:B 0
39 *1558:A2 *1550:B 2.20968e-05
40 *1561:A2 *1560:B 3.75373e-05
41 *1561:B1 *1560:B 0
42 *1566:A1 *1544:B 0
43 *1566:B1 *1544:B 0
44 *1741:A *1180:A2 0
45 *1753:A *1180:A2 0
46 *1855:CLK *1021:63 0
47 *1857:D *1021:8 0
48 *1860:CLK *1021:8 0
49 *1860:CLK *1021:63 0
50 *40:8 *1560:B 0
51 *228:31 *1180:A2 0
52 *562:10 *1021:10 0.000210433
53 *565:8 *1557:B 0
54 *656:12 *1557:B 4.15789e-05
55 *658:23 *1560:B 0
56 *982:73 *1180:A2 0
57 *982:73 *1021:10 0
58 *982:73 *1021:57 0
59 *983:10 *1180:A2 0
60 *983:10 *1021:63 0
61 *983:23 *1021:65 0
62 *983:25 *1557:B 0
63 *993:34 *1180:A2 0
64 *994:14 *1021:63 0.000210153
65 *994:20 *1544:B 0.000181611
66 *994:20 *1021:63 0.000443521
67 *994:93 *1021:63 0.000420672
*RES
1 *1780:X *1021:8 41.2496 
2 *1021:8 *1021:10 3.0448 
3 *1021:10 *1021:12 3.4144 
4 *1021:12 *1560:B 43.8522 
5 *1021:12 *1568:B 40.4378 
6 *1021:10 *1553:B 40.4378 
7 *1021:8 *1021:57 1.496 
8 *1021:57 *1021:63 45.5792 
9 *1021:63 *1021:65 3.0448 
10 *1021:65 *1021:67 3.0448 
11 *1021:67 *1557:B 43.8522 
12 *1021:67 *1550:B 40.9482 
13 *1021:65 *1547:B 40.9482 
14 *1021:63 *1544:B 41.617 
15 *1021:57 *1180:A2 45.8168 
*END

*D_NET *1022 0.0124257
*CONN
*I *1186:A2 I *D sg13g2_a21oi_1
*I *1619:B I *D sg13g2_nand3_1
*I *1611:B I *D sg13g2_nand3_1
*I *1616:B I *D sg13g2_nand3_1
*I *1601:B I *D sg13g2_nand3_1
*I *1605:B I *D sg13g2_nand3_1
*I *1595:B I *D sg13g2_nand3_1
*I *1579:A1 I *D sg13g2_a21oi_1
*I *1781:X O *D sg13g2_buf_2
*CAP
1 *1186:A2 0.000373539
2 *1619:B 0.000133387
3 *1611:B 5.70141e-05
4 *1616:B 0.000160958
5 *1601:B 5.58101e-05
6 *1605:B 0.000242961
7 *1595:B 0.000153816
8 *1579:A1 0
9 *1781:X 0.000234976
10 *1022:78 0.000245134
11 *1022:76 0.00105967
12 *1022:57 0.00113021
13 *1022:42 0.000607542
14 *1022:27 0.000664741
15 *1022:25 0.00117809
16 *1022:14 0.00015788
17 *1022:6 0.000875786
18 *1186:A2 *1114:10 0.0001818
19 *1601:B *1601:C 7.51688e-05
20 *1605:B *1605:C 0.000660223
21 *1611:B *1611:C 4.75265e-05
22 *1616:B *1611:C 0.000180955
23 *1616:B *1619:C 0
24 *1022:6 *1026:73 0
25 *1022:25 *1026:73 0
26 *1022:25 *1030:14 0
27 *1022:25 *1030:42 0
28 *1022:27 *1030:42 0
29 *1022:57 *1030:72 0
30 *1022:76 *1610:A 0.000471383
31 *1022:76 *1030:91 0
32 *1022:76 *1116:8 0.000244694
33 *1186:B1 *1186:A2 6.74074e-05
34 *1310:A *1595:B 0
35 *1310:C *1022:42 0
36 *1310:C *1022:57 0
37 *1579:A2 *1022:14 3.89582e-05
38 *1595:C *1595:B 4.79124e-05
39 *1595:A *1595:B 0.000197865
40 *1596:A2 *1186:A2 2.21365e-05
41 *1601:A *1605:B 0
42 *1606:A1 *1186:A2 0
43 *1606:B1 *1186:A2 0
44 *1613:A2 *1616:B 4.13824e-05
45 *1623:A1 *1022:6 0.0004738
46 *1623:A2 *1022:6 0
47 *1768:A *1619:B 0
48 *1873:D *1186:A2 0
49 *20:52 *1022:6 0
50 *107:10 *1022:27 0.000504067
51 *107:10 *1022:42 0.000324458
52 *107:10 *1022:57 6.48756e-05
53 *108:10 *1595:B 0
54 *108:10 *1022:27 0.000471919
55 *118:14 *1022:76 0
56 *118:14 *1022:78 0
57 *183:22 *1186:A2 0
58 *183:22 *1595:B 0
59 *379:14 *1186:A2 0
60 *379:14 *1022:6 0.000159435
61 *379:14 *1022:25 0.000606774
62 *672:10 *1022:76 0
63 *672:30 *1605:B 0
64 *676:10 *1616:B 0
65 *799:13 *1616:B 0
66 *799:13 *1619:B 4.14315e-05
67 *984:192 *1605:B 0
68 *988:59 *1022:6 0
69 *988:72 *1022:14 0.000128389
70 *1000:6 *1601:B 4.15789e-05
71 *1000:6 *1605:B 0
72 *1003:33 *1022:76 0
*RES
1 *1781:X *1022:6 22.5168 
2 *1022:6 *1022:14 41.5224 
3 *1022:14 *1579:A1 20 
4 *1022:6 *1022:25 24.532 
5 *1022:25 *1022:27 3.4144 
6 *1022:27 *1595:B 41.5818 
7 *1022:27 *1022:42 1.936 
8 *1022:42 *1605:B 43.179 
9 *1022:42 *1022:57 1.5664 
10 *1022:57 *1601:B 40.9482 
11 *1022:57 *1022:76 27.6472 
12 *1022:76 *1022:78 0.2992 
13 *1022:78 *1616:B 21.7666 
14 *1022:78 *1611:B 20.6226 
15 *1022:76 *1619:B 21.3618 
16 *1022:25 *1186:A2 44.0392 
*END

*D_NET *1023 0.00825444
*CONN
*I *1687:B I *D sg13g2_nand2_1
*I *1513:C I *D sg13g2_nand4_1
*I *1717:B I *D sg13g2_nand3_1
*I *1191:A2 I *D sg13g2_a21oi_1
*I *1783:A I *D sg13g2_buf_2
*I *1782:X O *D sg13g2_buf_2
*CAP
1 *1687:B 5.11818e-05
2 *1513:C 6.21423e-05
3 *1717:B 0.000956007
4 *1191:A2 2.40129e-05
5 *1783:A 0
6 *1782:X 0
7 *1023:67 0.000330433
8 *1023:61 0.000388008
9 *1023:33 0.000475579
10 *1023:25 0.0015862
11 *1023:14 0.000831009
12 *1023:4 0.000720915
13 *1717:B *1714:B 0
14 *1717:B *1024:91 0
15 *1717:B *1032:39 0.000243281
16 *1717:B *1032:56 0.00077867
17 *1023:14 *1720:A 3.36976e-05
18 *1023:25 *1720:A 0
19 *1023:25 *1721:C 0
20 *1187:A *1023:14 0
21 *1511:A *1023:14 0
22 *1513:B *1513:C 2.49862e-05
23 *1513:A *1513:C 0
24 *1513:D *1513:C 4.15789e-05
25 *1678:B1 *1191:A2 5.30323e-05
26 *1690:A *1023:14 0
27 *1720:B *1023:14 0
28 *1724:C *1717:B 0
29 *1737:A *1717:B 0
30 *1738:A *1023:25 0.000128161
31 *1748:A *1687:B 4.66158e-05
32 *1748:A *1023:61 4.66137e-05
33 *1913:CLK *1687:B 0.000128161
34 *1913:CLK *1023:14 0.000473249
35 *1913:CLK *1023:61 0.000208088
36 *168:8 *1023:33 0
37 *168:23 *1023:33 0
38 *171:10 *1023:14 0
39 *175:10 *1023:61 0.00018176
40 *222:14 *1191:A2 1.38105e-05
41 *479:10 *1717:B 0.00024328
42 *528:6 *1687:B 0.000128161
43 *704:32 *1717:B 5.57944e-05
44 *742:17 *1717:B 0
45 *742:17 *1023:33 0
46 *984:128 *1023:14 0
47 *984:128 *1023:33 0
48 *990:46 *1191:A2 0
*RES
1 *1782:X *1023:4 20 
2 *1023:4 *1023:14 45.8014 
3 *1023:14 *1783:A 20 
4 *1023:14 *1023:25 21.6742 
5 *1023:25 *1023:33 44.1624 
6 *1023:33 *1191:A2 40.2662 
7 *1023:25 *1717:B 48.6218 
8 *1023:4 *1023:61 21.1 
9 *1023:61 *1023:67 42.6224 
10 *1023:67 *1513:C 40.528 
11 *1023:61 *1687:B 40.7832 
*END

*D_NET *1024 0.0127276
*CONN
*I *1714:B I *D sg13g2_nand3_1
*I *1711:B I *D sg13g2_nand3_1
*I *1721:B I *D sg13g2_nand3_1
*I *1724:B I *D sg13g2_nand3_1
*I *1707:B I *D sg13g2_nand3_1
*I *1704:B I *D sg13g2_nand3_1
*I *1700:B I *D sg13g2_nand3_1
*I *1686:A1 I *D sg13g2_a21oi_1
*I *1783:X O *D sg13g2_buf_2
*CAP
1 *1714:B 0.000179935
2 *1711:B 0
3 *1721:B 5.9149e-05
4 *1724:B 0.000449522
5 *1707:B 0.00010112
6 *1704:B 0.00011391
7 *1700:B 7.59448e-05
8 *1686:A1 0.000475254
9 *1783:X 0.000191476
10 *1024:118 0.000553726
11 *1024:95 0.000775433
12 *1024:91 0.000458302
13 *1024:67 0.00093273
14 *1024:48 0.000702779
15 *1024:31 0.00073103
16 *1024:16 0.00166928
17 *1024:10 0.00105301
18 *1704:B *1704:C 0.000176302
19 *1707:B *1028:96 0
20 *1721:B *1721:C 4.79124e-05
21 *1724:B *1723:A 0
22 *1724:B *1028:96 0
23 *1024:10 *1720:A 0.000101779
24 *1024:16 *1032:35 0
25 *1024:31 *1028:33 0
26 *1024:31 *1032:108 0
27 *1024:48 *1032:108 0
28 *1024:95 *1721:C 0.000447677
29 *1458:B *1024:67 4.78029e-05
30 *1678:A2 *1024:10 0
31 *1683:A2 *1686:A1 0
32 *1684:A1 *1686:A1 0.000146063
33 *1684:A1 *1024:31 0.000130065
34 *1685:B *1686:A1 0
35 *1685:A *1686:A1 7.50649e-05
36 *1686:A2 *1686:A1 1.54556e-05
37 *1700:C *1700:B 2.20968e-05
38 *1704:A *1704:B 0.000144734
39 *1704:A *1024:67 7.51291e-05
40 *1707:A *1707:B 9.15777e-05
41 *1707:A *1724:B 0.000106065
42 *1708:A2 *1707:B 2.20968e-05
43 *1712:A2 *1024:118 2.20968e-05
44 *1714:A *1714:B 9.18e-05
45 *1715:A2 *1714:B 2.20968e-05
46 *1715:B1 *1714:B 0.000181383
47 *1715:B1 *1024:95 0
48 *1717:B *1714:B 0
49 *1717:B *1024:91 0
50 *1725:A1 *1724:B 7.47893e-05
51 *1725:A2 *1724:B 0
52 *1725:B1 *1724:B 0
53 *1737:A *1024:10 0.000210477
54 *1737:A *1024:91 0.000130125
55 *1738:A *1024:16 0
56 *1791:A *1024:16 0
57 *1917:D *1024:118 4.14315e-05
58 *1920:D *1024:118 0
59 *78:8 *1686:A1 0
60 *173:8 *1686:A1 0.000145541
61 *173:8 *1024:31 0.000112932
62 *185:8 *1024:31 0.000242536
63 *703:8 *1704:B 0
64 *704:32 *1724:B 0
65 *705:10 *1024:118 0
66 *740:13 *1024:31 0
67 *740:13 *1024:67 0
68 *741:21 *1707:B 0
69 *743:17 *1024:67 0.000340167
70 *978:39 *1024:48 0.000144766
71 *984:128 *1024:10 8.01437e-05
72 *989:21 *1714:B 0
73 *989:21 *1024:10 0
74 *989:21 *1024:91 0
75 *989:21 *1024:118 0.00014575
76 *989:42 *1024:118 0.000569106
77 *990:56 *1024:16 0
*RES
1 *1783:X *1024:10 41.9712 
2 *1024:10 *1024:16 46.8464 
3 *1024:16 *1686:A1 44.3296 
4 *1024:16 *1024:31 3.9688 
5 *1024:31 *1700:B 40.6446 
6 *1024:31 *1024:48 21.5664 
7 *1024:48 *1704:B 21.3706 
8 *1024:48 *1024:67 43.2384 
9 *1024:67 *1707:B 21.1594 
10 *1024:67 *1724:B 23.905 
11 *1024:10 *1024:91 1.1968 
12 *1024:91 *1024:95 21.9888 
13 *1024:95 *1721:B 20.6226 
14 *1024:95 *1024:118 45.7442 
15 *1024:118 *1711:B 20 
16 *1024:91 *1714:B 42.1714 
*END

*D_NET *1025 0.0106759
*CONN
*I *1563:B I *D sg13g2_nand2_1
*I *1546:B I *D sg13g2_nand2_1
*I *1552:B I *D sg13g2_nand2_1
*I *1567:B I *D sg13g2_nand2_1
*I *1559:B I *D sg13g2_nand2_1
*I *1549:B I *D sg13g2_nand2_1
*I *1555:B I *D sg13g2_nand2_1
*I *1543:B I *D sg13g2_nand2_1
*I *1784:X O *D sg13g2_buf_2
*CAP
1 *1563:B 4.03263e-05
2 *1546:B 6.83748e-05
3 *1552:B 0.000136911
4 *1567:B 0
5 *1559:B 0.000331754
6 *1549:B 0.000333981
7 *1555:B 9.46433e-05
8 *1543:B 0
9 *1784:X 0.000555529
10 *1025:75 0.000581661
11 *1025:71 0.000900173
12 *1025:56 0.000847336
13 *1025:45 0.000338834
14 *1025:43 0.000820658
15 *1025:35 0.000799994
16 *1025:24 0.0004258
17 *1025:16 0.00101343
18 *1025:12 0.000891589
19 *1546:B *1074:10 0
20 *1549:B *1071:14 0
21 *1549:B *1074:10 0
22 *1552:B *1072:10 0.000178388
23 *1555:B *1071:14 0
24 *1559:B *1068:10 0
25 *1559:B *1070:10 0
26 *1563:B *1563:A 2.19663e-05
27 *1025:24 *1543:A 0
28 *1025:35 *1029:30 0
29 *1025:35 *1095:8 0
30 *1025:43 *1563:A 0
31 *1025:43 *1095:8 0.000307487
32 *1025:45 *1074:10 0.000178478
33 *1025:71 *1072:10 0.000367562
34 *1025:71 *1074:10 0
35 *1025:75 *1072:10 4.77421e-05
36 *1545:A2 *1563:B 0.000127783
37 *1545:A2 *1025:43 0.000287636
38 *1548:A2 *1546:B 0
39 *1550:B *1025:71 0
40 *1551:A2 *1549:B 0.000197066
41 *1551:A2 *1025:71 0.000710872
42 *1561:B1 *1559:B 2.20968e-05
43 *1561:B1 *1025:75 0
44 *1854:CLK *1025:16 0
45 *1854:CLK *1025:24 0
46 *35:10 *1549:B 0
47 *242:12 *1552:B 0
48 *765:7 *1025:12 0
49 *765:7 *1025:16 0
50 *765:7 *1025:24 0
51 *765:11 *1552:B 0
52 *765:11 *1559:B 0
53 *765:11 *1025:12 0
54 *765:11 *1025:75 0
55 *983:51 *1559:B 0
56 *994:39 *1025:43 0
57 *994:43 *1025:45 0
58 *994:55 *1549:B 0
59 *994:55 *1555:B 4.78023e-05
60 *994:95 *1025:75 0
*RES
1 *1784:X *1025:12 45.7024 
2 *1025:12 *1025:16 23.0448 
3 *1025:16 *1025:24 43.8984 
4 *1025:24 *1543:B 20 
5 *1025:16 *1025:35 42.1208 
6 *1025:35 *1025:43 25.0424 
7 *1025:43 *1025:45 2.4904 
8 *1025:45 *1555:B 40.8272 
9 *1025:45 *1025:56 20 
10 *1025:56 *1549:B 23.5376 
11 *1025:56 *1025:71 25.7904 
12 *1025:71 *1025:75 2.6048 
13 *1025:75 *1559:B 42.8688 
14 *1025:75 *1567:B 40 
15 *1025:71 *1552:B 41.584 
16 *1025:43 *1546:B 40.572 
17 *1025:35 *1563:B 20.5104 
*END

*D_NET *1026 0.0137404
*CONN
*I *1610:B I *D sg13g2_nand2_1
*I *1607:B I *D sg13g2_nand2_1
*I *1594:B I *D sg13g2_nand2_1
*I *1597:B I *D sg13g2_nand2_1
*I *1353:B I *D sg13g2_nor2_2
*I *1575:B1 I *D sg13g2_a21oi_1
*I *1622:B I *D sg13g2_nor2_1
*I *1600:B I *D sg13g2_nand2_1
*I *1785:X O *D sg13g2_buf_4
*CAP
1 *1610:B 0
2 *1607:B 0.000359349
3 *1594:B 0
4 *1597:B 0.00089832
5 *1353:B 0.000120006
6 *1575:B1 0.000251039
7 *1622:B 0.000171956
8 *1600:B 0.000134065
9 *1785:X 0.000202977
10 *1026:138 0.000339719
11 *1026:73 0.000994375
12 *1026:52 0.00133445
13 *1026:50 0.00179439
14 *1026:42 0.000484007
15 *1026:36 0.000804987
16 *1026:30 0.000461543
17 *1026:22 0.000551634
18 *1575:B1 *1580:B 0
19 *1597:B *1597:A 0
20 *1597:B *1067:10 4.8613e-05
21 *1600:B *1600:A 0
22 *1600:B *1030:91 0
23 *1607:B *1607:A 0
24 *1607:B *1608:C 0.00044203
25 *1026:22 *1030:91 0
26 *1026:42 *1607:A 0
27 *1026:50 *1607:A 2.20968e-05
28 *1026:50 *1067:10 0.000423148
29 *1026:52 *1067:10 4.77421e-05
30 *1026:138 *1030:91 0
31 *1353:A *1353:B 1.54556e-05
32 *1572:A *1622:B 0
33 *1572:A *1026:52 0
34 *1574:A *1575:B1 0.000134716
35 *1575:A2 *1575:B1 0.00027516
36 *1575:A2 *1026:73 2.46411e-05
37 *1596:B1 *1597:B 0
38 *1599:A1 *1597:B 0
39 *1602:A1 *1600:B 0.00023506
40 *1602:A1 *1026:22 0
41 *1602:A1 *1026:138 0
42 *1602:B1 *1026:30 0.000128161
43 *1608:B *1026:42 0
44 *1608:B *1026:50 0
45 *1608:B *1026:52 0
46 *1609:A1 *1607:B 0.000287904
47 *1609:A2 *1607:B 0
48 *1609:A2 *1026:50 0
49 *1617:A2 *1600:B 0
50 *1623:A2 *1622:B 0
51 *1759:A *1607:B 0
52 *1825:A *1597:B 0
53 *1876:D *1026:22 0
54 *1876:D *1026:138 0
55 *20:52 *1622:B 0
56 *20:52 *1026:73 0.00136517
57 *42:8 *1575:B1 0
58 *55:10 *1607:B 0.000234832
59 *118:14 *1600:B 0
60 *192:9 *1597:B 0
61 *192:15 *1597:B 0
62 *219:21 *1026:52 0
63 *379:14 *1026:73 0
64 *380:16 *1026:30 0.000128351
65 *382:6 *1353:B 0
66 *575:8 *1026:52 0
67 *575:23 *1026:52 0
68 *578:8 *1575:B1 0
69 *671:8 *1597:B 0
70 *792:19 *1026:30 0.000209703
71 *792:19 *1026:36 0
72 *792:19 *1026:42 0.00014502
73 *792:19 *1026:52 0
74 *792:19 *1026:138 0
75 *793:9 *1597:B 0.000288242
76 *797:9 *1026:138 0.000208899
77 *984:179 *1026:50 0
78 *984:179 *1026:52 0
79 *984:192 *1026:50 0
80 *987:25 *1597:B 0
81 *987:40 *1026:36 0
82 *988:59 *1622:B 6.74074e-05
83 *988:72 *1622:B 2.98704e-05
84 *988:94 *1353:B 7.53575e-05
85 *1000:51 *1026:36 0
86 *1022:6 *1026:73 0
87 *1022:25 *1026:73 0
*RES
1 *1785:X *1600:B 41.6016 
2 *1785:X *1026:22 20.572 
3 *1026:22 *1026:30 41.7072 
4 *1026:30 *1026:36 22.816 
5 *1026:36 *1026:42 21.1264 
6 *1026:42 *1026:50 23.4848 
7 *1026:50 *1026:52 4.8928 
8 *1026:52 *1622:B 41.4256 
9 *1026:52 *1026:73 45.9576 
10 *1026:73 *1575:B1 42.2858 
11 *1026:73 *1353:B 41.0824 
12 *1026:50 *1597:B 47.8848 
13 *1026:42 *1594:B 20 
14 *1026:36 *1607:B 44.4704 
15 *1026:22 *1026:138 42.64 
16 *1026:138 *1610:B 20 
*END

*D_NET *1027 0.00986499
*CONN
*I *1646:B I *D sg13g2_nand2_1
*I *1656:B I *D sg13g2_nand2_1
*I *1652:B I *D sg13g2_nand2_1
*I *1649:B I *D sg13g2_nand2_1
*I *1660:B I *D sg13g2_nand2_1
*I *1667:B I *D sg13g2_nand2_1
*I *1670:B I *D sg13g2_nand2_1
*I *1663:B I *D sg13g2_nand2_1
*I *1786:X O *D sg13g2_buf_2
*CAP
1 *1646:B 0.000168354
2 *1656:B 0
3 *1652:B 0
4 *1649:B 0
5 *1660:B 0.00010528
6 *1667:B 0
7 *1670:B 0
8 *1663:B 0
9 *1786:X 0.000182
10 *1027:98 0.000535265
11 *1027:85 0
12 *1027:81 0.000887773
13 *1027:58 0.000244815
14 *1027:48 0.000646561
15 *1027:34 0.000312724
16 *1027:22 0.00070699
17 *1027:16 0.00111885
18 *1027:14 0.000767063
19 *1027:12 0.000863211
20 *1027:10 0.000522115
21 *1027:14 *1031:16 0
22 *1027:16 *1055:10 0
23 *1027:34 *1663:A 7.51684e-05
24 *1027:34 *1670:A 9.00323e-05
25 *1027:48 *1055:10 0.000106065
26 *1027:58 *1055:10 4.87466e-05
27 *1027:98 *1136:8 0
28 *1571:A2 *1646:B 0.000338661
29 *1648:B1 *1646:B 8.11057e-05
30 *1648:B1 *1027:10 3.22362e-05
31 *1648:B1 *1027:12 4.75868e-05
32 *1659:B1 *1027:12 0
33 *1662:A1 *1660:B 0
34 *1662:B1 *1660:B 0
35 *1662:B1 *1027:48 0
36 *1665:B1 *1027:34 0.000209763
37 *1669:A1 *1660:B 0
38 *1669:A1 *1027:58 7.51688e-05
39 *1669:A2 *1660:B 0
40 *1669:A2 *1027:48 0
41 *1669:A2 *1027:58 0
42 *1672:A2 *1027:34 0
43 *1815:A *1027:98 0
44 *1895:CLK *1027:14 0
45 *70:8 *1027:14 0
46 *73:10 *1027:16 0
47 *73:10 *1027:48 0
48 *75:12 *1027:58 0
49 *162:10 *1027:34 0.000122871
50 *827:13 *1027:16 0
51 *832:13 *1027:34 0
52 *832:25 *1027:22 0
53 *832:25 *1027:48 0
54 *832:25 *1027:58 0
55 *833:9 *1027:34 0.000122871
56 *834:19 *1027:22 0
57 *975:10 *1027:98 0
58 *975:54 *1027:22 0.00103254
59 *975:54 *1027:48 0
60 *991:47 *1027:16 0.00014502
61 *992:33 *1027:16 0
62 *992:63 *1027:14 0
63 *992:63 *1027:16 0
64 *992:82 *1027:14 0
65 *992:93 *1027:14 0
66 *992:101 *1027:12 0.000260749
67 *992:101 *1027:14 1.54007e-05
68 *1013:10 *1027:34 0
*RES
1 *1786:X *1027:10 41.7864 
2 *1027:10 *1027:12 1.7512 
3 *1027:12 *1027:14 3.4144 
4 *1027:14 *1027:16 4.3384 
5 *1027:16 *1027:22 24.7432 
6 *1027:22 *1027:34 43.0448 
7 *1027:34 *1663:B 20 
8 *1027:22 *1670:B 20 
9 *1027:16 *1027:48 22.4112 
10 *1027:48 *1027:58 42.2968 
11 *1027:58 *1667:B 20 
12 *1027:48 *1660:B 21.012 
13 *1027:14 *1649:B 40 
14 *1027:12 *1027:81 23.6784 
15 *1027:81 *1027:85 40 
16 *1027:85 *1652:B 20 
17 *1027:81 *1027:98 44.9808 
18 *1027:98 *1656:B 20 
19 *1027:10 *1646:B 41.8392 
*END

*D_NET *1028 0.0108628
*CONN
*I *1706:B I *D sg13g2_nand2_1
*I *1703:B I *D sg13g2_nand2_1
*I *1723:B I *D sg13g2_nand2_1
*I *1716:B I *D sg13g2_nand2_1
*I *1709:B I *D sg13g2_nand2_1
*I *1699:B I *D sg13g2_nand2_1
*I *1713:B I *D sg13g2_nand2_1
*I *1683:B1 I *D sg13g2_a21oi_1
*I *1787:X O *D sg13g2_buf_2
*CAP
1 *1706:B 4.02406e-05
2 *1703:B 0.000233079
3 *1723:B 0
4 *1716:B 5.0888e-05
5 *1709:B 0.000422676
6 *1699:B 0.000715225
7 *1713:B 0
8 *1683:B1 0
9 *1787:X 0.000461681
10 *1028:96 0.0010805
11 *1028:81 0.00103145
12 *1028:57 0.000473564
13 *1028:55 0.000537741
14 *1028:42 0.00107193
15 *1028:33 0.000531643
16 *1028:24 0.00027815
17 *1028:14 0.00122824
18 *1699:B *1713:A 0
19 *1699:B *1083:10 0
20 *1703:B *1706:A 0
21 *1709:B *1716:A 0.000309543
22 *1716:B *1716:A 0.000155228
23 *1028:24 *1032:23 0
24 *1028:33 *1032:35 0
25 *1028:96 *1707:C 0
26 *1678:A2 *1028:14 0.000181839
27 *1678:A1 *1028:14 2.26492e-05
28 *1678:B1 *1028:14 0.000143669
29 *1683:A1 *1028:14 2.20968e-05
30 *1683:A1 *1028:24 0.000251652
31 *1683:A2 *1028:24 8.12057e-05
32 *1700:C *1699:B 0
33 *1702:A2 *1699:B 0
34 *1705:A1 *1703:B 0.000233167
35 *1705:A2 *1706:B 7.508e-05
36 *1705:B1 *1703:B 2.8046e-05
37 *1707:B *1028:96 0
38 *1708:A1 *1028:96 0
39 *1708:A2 *1028:96 0
40 *1724:B *1028:96 0
41 *1724:C *1028:55 0
42 *1738:A *1028:14 0
43 *1791:A *1028:14 0
44 *1791:A *1028:24 0
45 *1839:A *1699:B 0
46 *1914:D *1699:B 0
47 *1916:CLK *1028:96 0
48 *1916:D *1028:96 0
49 *94:10 *1028:96 0
50 *173:8 *1028:24 0.000112739
51 *173:8 *1028:33 0
52 *196:10 *1028:55 0
53 *196:10 *1028:81 0
54 *222:14 *1028:14 7.51291e-05
55 *479:10 *1709:B 0.000553175
56 *479:10 *1716:B 0.000234832
57 *703:8 *1709:B 0
58 *740:13 *1028:42 0
59 *740:13 *1028:55 0
60 *741:13 *1703:B 1.53311e-05
61 *741:21 *1028:81 0.000210414
62 *742:17 *1709:B 0
63 *743:17 *1028:55 0
64 *978:8 *1028:33 0
65 *978:8 *1028:42 0
66 *978:8 *1028:55 0
67 *990:46 *1028:14 0
68 *990:56 *1699:B 0
69 *990:77 *1699:B 0
70 *990:90 *1699:B 0
71 *1024:31 *1028:33 0
*RES
1 *1787:X *1028:14 24.5056 
2 *1028:14 *1028:24 42.7434 
3 *1028:24 *1683:B1 20 
4 *1028:14 *1028:33 24.3384 
5 *1028:33 *1713:B 40 
6 *1028:33 *1028:42 0.4576 
7 *1028:42 *1699:B 46.0368 
8 *1028:42 *1028:55 2.9568 
9 *1028:55 *1028:57 20 
10 *1028:57 *1709:B 24.6816 
11 *1028:57 *1716:B 20.9328 
12 *1028:55 *1028:81 1.584 
13 *1028:81 *1723:B 40 
14 *1028:81 *1028:96 26.7848 
15 *1028:96 *1703:B 22.2616 
16 *1028:96 *1706:B 20.572 
*END

*D_NET *1029 0.0126559
*CONN
*I *1524:B I *D sg13g2_or2_1
*I *1553:C I *D sg13g2_nand3_1
*I *1568:C I *D sg13g2_nand3_1
*I *1560:C I *D sg13g2_nand3_1
*I *1544:C I *D sg13g2_nand3_1
*I *1550:C I *D sg13g2_nand3_1
*I *1557:C I *D sg13g2_nand3_1
*I *1547:C I *D sg13g2_nand3_1
*I *1788:X O *D sg13g2_buf_2
*CAP
1 *1524:B 0.000531061
2 *1553:C 3.90167e-05
3 *1568:C 0
4 *1560:C 0
5 *1544:C 6.80669e-05
6 *1550:C 5.33976e-05
7 *1557:C 0.000393263
8 *1547:C 3.21848e-05
9 *1788:X 0.000171337
10 *1029:92 0.000305307
11 *1029:82 0.000749578
12 *1029:76 0.00109133
13 *1029:43 0.000853794
14 *1029:32 0.000851026
15 *1029:30 0.0010527
16 *1029:24 0.0012863
17 *1029:20 0.000315384
18 *1029:12 0.00091245
19 *1557:C *1071:14 0
20 *1557:C *1098:8 0.000307702
21 *1029:30 *1100:10 0
22 *1029:43 *1098:8 8.00335e-05
23 *1180:A2 *1029:20 0
24 *1180:A2 *1029:76 0.000242298
25 *1544:B *1544:C 0.00012839
26 *1545:A2 *1544:C 0.000234832
27 *1550:B *1550:C 7.51688e-05
28 *1558:A2 *1550:C 0.000181194
29 *1560:B *1029:82 0
30 *1560:B *1029:92 0
31 *1561:B1 *1029:82 0
32 *1566:A1 *1029:30 0.000341274
33 *1566:A2 *1029:20 0.000128201
34 *1566:A2 *1029:24 0.00031876
35 *1566:A2 *1029:30 0.000606624
36 *1568:B *1029:92 5.68871e-05
37 *1568:A *1029:92 9.18e-05
38 *1569:A2 *1029:82 0
39 *1569:A2 *1029:92 7.51684e-05
40 *1742:A *1029:24 0
41 *1753:A *1029:30 0
42 *1780:A *1524:B 0
43 *1780:A *1029:12 0
44 *1853:CLK *1524:B 0
45 *1854:CLK *1029:30 0
46 *1860:CLK *1029:20 0
47 *1860:D *1029:30 0.000287487
48 *37:10 *1557:C 0
49 *214:22 *1524:B 0.000148902
50 *215:18 *1524:B 0
51 *561:10 *1029:76 0.000177525
52 *562:10 *1029:76 0.00021024
53 *654:10 *1029:30 0
54 *656:12 *1557:C 7.5293e-05
55 *656:23 *1029:92 0
56 *658:23 *1029:92 0
57 *660:10 *1029:12 0.000101873
58 *982:73 *1524:B 0
59 *982:73 *1029:12 0
60 *982:73 *1029:20 8.00835e-05
61 *983:10 *1029:76 0
62 *983:25 *1557:C 0
63 *983:33 *1557:C 0
64 *993:57 *1524:B 0
65 *994:39 *1029:32 0
66 *994:39 *1029:43 0
67 *994:43 *1029:43 0
68 *994:93 *1029:76 0
69 *994:95 *1029:76 0
70 *994:95 *1029:82 0
71 *1021:10 *1029:76 0
72 *1021:12 *1029:76 0
73 *1021:12 *1029:82 0
74 *1021:57 *1029:76 0
75 *1025:35 *1029:30 0
*RES
1 *1788:X *1029:12 41.7424 
2 *1029:12 *1029:20 41.8128 
3 *1029:20 *1029:24 21.3552 
4 *1029:24 *1029:30 26.6176 
5 *1029:30 *1029:32 3.4144 
6 *1029:32 *1547:C 40.2992 
7 *1029:32 *1029:43 3.4144 
8 *1029:43 *1557:C 43.7136 
9 *1029:43 *1550:C 40.7216 
10 *1029:30 *1544:C 40.9328 
11 *1029:24 *1029:76 25.632 
12 *1029:76 *1029:82 23.7136 
13 *1029:82 *1029:92 42.9568 
14 *1029:92 *1560:C 20 
15 *1029:82 *1568:C 20 
16 *1029:76 *1553:C 40.2992 
17 *1029:12 *1524:B 45.115 
*END

*D_NET *1030 0.0139829
*CONN
*I *1619:C I *D sg13g2_nand3_1
*I *1611:C I *D sg13g2_nand3_1
*I *1616:C I *D sg13g2_nand3_1
*I *1601:C I *D sg13g2_nand3_1
*I *1608:C I *D sg13g2_nand3_1
*I *1605:C I *D sg13g2_nand3_1
*I *1580:B I *D sg13g2_nor2_1
*I *1574:B I *D sg13g2_or2_1
*I *1789:X O *D sg13g2_buf_2
*CAP
1 *1619:C 0.000220657
2 *1611:C 9.48099e-05
3 *1616:C 5.10875e-05
4 *1601:C 4.52259e-05
5 *1608:C 0.000541765
6 *1605:C 0.000181831
7 *1580:B 0.000504049
8 *1574:B 0
9 *1789:X 6.14137e-05
10 *1030:102 0.000340574
11 *1030:91 0.00112968
12 *1030:72 0.00125787
13 *1030:55 0.000774916
14 *1030:42 0.000835388
15 *1030:14 0.00115329
16 *1030:8 0.00129022
17 *1605:C *1603:A 4.79124e-05
18 *1608:C *1607:A 0
19 *1030:8 *1114:10 0.000128161
20 *1030:42 *1114:10 0
21 *1349:B *1580:B 2.20968e-05
22 *1574:A *1580:B 0
23 *1575:B1 *1580:B 0
24 *1581:B *1580:B 3.7631e-05
25 *1582:B *1580:B 0
26 *1595:C *1030:42 0
27 *1596:B1 *1030:8 2.81734e-05
28 *1600:B *1030:91 0
29 *1601:B *1601:C 7.51688e-05
30 *1602:A1 *1030:91 0
31 *1602:A2 *1030:91 0
32 *1605:B *1605:C 0.000660223
33 *1607:B *1608:C 0.00044203
34 *1608:B *1608:C 4.79124e-05
35 *1609:A1 *1608:C 0
36 *1609:A2 *1608:C 0
37 *1611:B *1611:C 4.75265e-05
38 *1613:A2 *1611:C 0
39 *1616:B *1611:C 0.000180955
40 *1616:B *1619:C 0
41 *1616:A *1611:C 3.86694e-05
42 *1789:A *1030:8 8.67693e-05
43 *1876:D *1030:91 0
44 *51:10 *1030:14 8.00835e-05
45 *51:10 *1030:42 0
46 *107:10 *1608:C 0.000818903
47 *107:10 *1030:42 0.000828525
48 *107:10 *1030:55 8.03372e-05
49 *118:14 *1030:91 0.000126148
50 *119:10 *1030:91 7.37474e-05
51 *183:37 *1030:42 0
52 *183:37 *1030:91 0
53 *378:6 *1580:B 2.21754e-05
54 *378:20 *1580:B 3.7631e-05
55 *379:14 *1030:8 0
56 *382:6 *1580:B 0
57 *575:8 *1030:14 0
58 *575:23 *1030:8 0
59 *577:10 *1580:B 0.000128618
60 *666:16 *1030:14 0
61 *666:35 *1580:B 2.20968e-05
62 *666:35 *1030:14 0
63 *676:10 *1619:C 0.00017834
64 *676:10 *1030:91 1.53506e-05
65 *676:10 *1030:102 4.75868e-05
66 *792:19 *1619:C 1.54007e-05
67 *794:15 *1619:C 0
68 *795:15 *1030:72 0
69 *795:15 *1030:91 0
70 *798:9 *1030:91 0
71 *799:13 *1619:C 0.000234415
72 *984:192 *1605:C 0.000766288
73 *1000:6 *1601:C 0.000181233
74 *1000:6 *1608:C 0
75 *1022:25 *1030:14 0
76 *1022:25 *1030:42 0
77 *1022:27 *1030:42 0
78 *1022:57 *1030:72 0
79 *1022:76 *1030:91 0
80 *1026:22 *1030:91 0
81 *1026:138 *1030:91 0
*RES
1 *1789:X *1030:8 40.8272 
2 *1030:8 *1030:14 25.7464 
3 *1030:14 *1574:B 20 
4 *1030:14 *1580:B 24.84 
5 *1030:8 *1030:42 5.5616 
6 *1030:42 *1605:C 43.3176 
7 *1030:42 *1030:55 0.6424 
8 *1030:55 *1608:C 46.16 
9 *1030:55 *1030:72 1.1968 
10 *1030:72 *1601:C 40.7216 
11 *1030:72 *1030:91 47.8144 
12 *1030:91 *1616:C 40.5104 
13 *1030:91 *1030:102 0.2728 
14 *1030:102 *1611:C 40.9944 
15 *1030:102 *1619:C 42.3144 
*END

*D_NET *1031 0.0114818
*CONN
*I *1632:B I *D sg13g2_nor2_1
*I *1647:C I *D sg13g2_nand3_1
*I *1653:C I *D sg13g2_nand3_1
*I *1650:C I *D sg13g2_nand3_1
*I *1661:C I *D sg13g2_nand3_1
*I *1671:C I *D sg13g2_nand3_1
*I *1664:C I *D sg13g2_nand3_1
*I *1668:C I *D sg13g2_nand3_1
*I *1790:X O *D sg13g2_buf_2
*CAP
1 *1632:B 0.000373233
2 *1647:C 0
3 *1653:C 0.000161041
4 *1650:C 0
5 *1661:C 0
6 *1671:C 0
7 *1664:C 2.63912e-05
8 *1668:C 0
9 *1790:X 0
10 *1031:107 0.00100991
11 *1031:49 8.95566e-05
12 *1031:43 0.000427418
13 *1031:32 0.000100515
14 *1031:22 0.000573794
15 *1031:18 0.000466958
16 *1031:16 0.000426682
17 *1031:12 0.000580964
18 *1031:10 0.000736088
19 *1031:4 0.00102159
20 *1031:107 *1033:10 0.000112992
21 *1636:B *1632:B 0.000447339
22 *1650:B *1653:C 7.51684e-05
23 *1653:B *1653:C 0.000234604
24 *1659:B1 *1031:10 0
25 *1659:B1 *1031:107 0
26 *1661:A *1031:32 0
27 *1668:B *1031:32 0
28 *1671:A *1664:C 7.53965e-05
29 *1786:A *1031:107 0
30 *1790:A *1031:107 0.000276069
31 *129:10 *1632:B 0.000287487
32 *129:10 *1031:107 0.000422435
33 *129:12 *1031:107 0.000390033
34 *150:10 *1653:C 0
35 *209:35 *1031:10 0
36 *209:35 *1031:107 0
37 *462:16 *1632:B 0.00012839
38 *463:12 *1632:B 0
39 *466:12 *1632:B 0
40 *690:33 *1031:32 7.51688e-05
41 *830:15 *1031:18 0
42 *975:16 *1031:32 0
43 *992:63 *1031:18 0
44 *992:82 *1031:12 0
45 *992:93 *1031:12 0
46 *1020:8 *1031:10 4.8613e-05
47 *1020:8 *1031:107 4.8613e-05
48 *1020:12 *1031:10 0.00058719
49 *1020:12 *1031:107 4.77421e-05
50 *1020:18 *1653:C 0.000123192
51 *1020:18 *1031:10 4.7566e-05
52 *1020:18 *1031:12 0.000536232
53 *1020:18 *1031:18 0
54 *1020:20 *1031:18 0
55 *1020:38 *1031:18 4.7566e-05
56 *1020:38 *1031:22 0.00023677
57 *1020:38 *1031:32 0
58 *1020:49 *1031:22 5.3594e-05
59 *1020:49 *1031:43 0.000850005
60 *1020:57 *1031:43 4.7709e-05
61 *1020:57 *1031:49 0.000234798
62 *1020:135 *1031:107 5.30323e-05
63 *1027:14 *1031:16 0
*RES
1 *1790:X *1031:4 20 
2 *1031:4 *1031:10 23.7928 
3 *1031:10 *1031:12 3.2296 
4 *1031:12 *1031:16 0.7832 
5 *1031:16 *1031:18 3.4144 
6 *1031:18 *1031:22 21.3552 
7 *1031:22 *1031:32 40.8448 
8 *1031:32 *1668:C 20 
9 *1031:22 *1031:43 24.1888 
10 *1031:43 *1031:49 40.9328 
11 *1031:49 *1664:C 40.2992 
12 *1031:43 *1671:C 40 
13 *1031:18 *1661:C 40 
14 *1031:16 *1650:C 40 
15 *1031:12 *1653:C 41.9272 
16 *1031:10 *1647:C 40 
17 *1031:4 *1031:107 46.776 
18 *1031:107 *1632:B 23.74 
*END

*D_NET *1032 0.0124461
*CONN
*I *1707:C I *D sg13g2_nand3_1
*I *1704:C I *D sg13g2_nand3_1
*I *1688:B I *D sg13g2_nor2_1
*I *1721:C I *D sg13g2_nand3_1
*I *1711:C I *D sg13g2_nand3_1
*I *1717:C I *D sg13g2_nand3_1
*I *1714:C I *D sg13g2_nand3_1
*I *1680:B I *D sg13g2_or2_1
*I *1791:X O *D sg13g2_buf_2
*CAP
1 *1707:C 0.000320084
2 *1704:C 8.23924e-05
3 *1688:B 2.81388e-05
4 *1721:C 0.000249064
5 *1711:C 0
6 *1717:C 0
7 *1714:C 0
8 *1680:B 0.00011844
9 *1791:X 2.76211e-05
10 *1032:108 0.00116993
11 *1032:85 0.000412145
12 *1032:70 0.000266365
13 *1032:58 0.000678509
14 *1032:56 0.000469838
15 *1032:39 0.000595427
16 *1032:35 0.00121494
17 *1032:23 0.00124263
18 *1032:12 0.000662168
19 *1032:8 0.000964602
20 *1509:B *1680:B 0
21 *1509:A *1680:B 0
22 *1683:A1 *1032:23 0
23 *1683:A2 *1680:B 0
24 *1683:A2 *1688:B 0
25 *1683:A2 *1032:23 0
26 *1684:A1 *1032:108 0.000325157
27 *1688:A *1032:35 0
28 *1704:B *1704:C 0.000176302
29 *1708:A2 *1707:C 0.000127923
30 *1712:A1 *1032:85 0
31 *1712:A2 *1032:85 0
32 *1714:A *1032:56 0
33 *1715:A1 *1032:35 0
34 *1715:B1 *1721:C 0
35 *1715:B1 *1032:35 0
36 *1717:B *1032:39 0.000243281
37 *1717:B *1032:56 0.00077867
38 *1721:B *1721:C 4.79124e-05
39 *1774:A *1032:56 0
40 *1774:A *1032:85 0.000177337
41 *1913:D *1032:23 0
42 *1917:D *1032:85 0
43 *170:10 *1032:12 0.00014575
44 *170:10 *1032:108 8.00835e-05
45 *173:8 *1032:12 0
46 *530:8 *1032:23 0
47 *697:23 *1680:B 0
48 *697:23 *1032:12 0
49 *703:8 *1704:C 0
50 *704:32 *1032:70 0
51 *704:32 *1032:85 0
52 *742:17 *1032:39 0.000243281
53 *742:17 *1032:56 0.000260668
54 *743:17 *1704:C 0.000181611
55 *978:39 *1707:C 0
56 *979:8 *1032:35 0
57 *989:50 *1032:56 0
58 *989:50 *1032:85 0
59 *990:46 *1688:B 0
60 *990:46 *1032:23 0
61 *990:56 *1032:35 0.00070816
62 *990:90 *1707:C 0
63 *1023:25 *1721:C 0
64 *1024:16 *1032:35 0
65 *1024:31 *1032:108 0
66 *1024:48 *1032:108 0
67 *1024:95 *1721:C 0.000447677
68 *1028:24 *1032:23 0
69 *1028:33 *1032:35 0
70 *1028:96 *1707:C 0
*RES
1 *1791:X *1032:8 40.1936 
2 *1032:8 *1032:12 21.5664 
3 *1032:12 *1680:B 21.0142 
4 *1032:12 *1032:23 3.3176 
5 *1032:23 *1032:35 47.7968 
6 *1032:35 *1032:39 21.3816 
7 *1032:39 *1714:C 40 
8 *1032:39 *1032:56 44.9368 
9 *1032:56 *1032:58 20 
10 *1032:58 *1032:70 41.9404 
11 *1032:70 *1717:C 20 
12 *1032:58 *1032:85 43.3 
13 *1032:85 *1711:C 20 
14 *1032:35 *1721:C 22.8952 
15 *1032:23 *1688:B 20.2728 
16 *1032:8 *1032:108 6.7408 
17 *1032:108 *1704:C 41.1792 
18 *1032:108 *1707:C 42.816 
*END

*D_NET *1033 0.0113142
*CONN
*P valid O
*I *1792:X O *D sg13g2_buf_1
*CAP
1 valid 0.00113803
2 *1792:X 0.000719227
3 *1033:16 0.00423913
4 *1033:10 0.00382033
5 valid results[78] 0
6 *1033:16 results[77] 0
7 *1438:D *1033:16 0
8 *1442:A *1033:16 0
9 *1445:A *1033:16 0
10 *1675:A1 *1033:10 0
11 *1786:A *1033:10 0
12 *1795:A *1033:16 0
13 *62:10 *1033:10 0
14 *129:10 *1033:16 0
15 *462:10 *1033:16 0
16 *463:12 *1033:10 0
17 *463:12 *1033:16 0.0012325
18 *463:46 *1033:16 5.19964e-05
19 *464:27 *1033:10 0
20 *467:12 *1033:16 0
21 *469:10 *1033:16 0
22 *685:10 *1033:16 0
23 *972:9 *1033:16 0
24 *972:22 *1033:10 0
25 *1031:107 *1033:10 0.000112992
*RES
1 *1792:X *1033:10 47.304 
2 *1033:10 *1033:16 44.7808 
3 *1033:16 valid 11.66 
*END

*D_NET *1034 0.00367427
*CONN
*P results[79] O
*I *1793:X O *D sg13g2_buf_1
*CAP
1 results[79] 0.000484644
2 *1793:X 0.000760882
3 *1034:10 0.00124553
4 results[79] results[77] 0
5 results[79] *1035:8 0.000655543
6 results[79] *1037:8 0
7 *831:11 *1034:10 0.000527671
*RES
1 *1793:X *1034:10 48.6504 
2 *1034:10 results[79] 25.324 
*END

*D_NET *1035 0.0045796
*CONN
*P results[78] O
*I *1794:X O *D sg13g2_buf_1
*CAP
1 results[78] 0.000766091
2 *1794:X 0.000748629
3 *1035:8 0.00151472
4 results[78] results[76] 0.00089462
5 *1035:8 results[77] 0
6 *1035:8 *1037:8 0
7 results[79] *1035:8 0.000655543
8 valid results[78] 0
*RES
1 *1794:X *1035:8 47.7968 
2 *1035:8 results[78] 27.8672 
*END

*D_NET *1036 0.00296511
*CONN
*P results[77] O
*I *1795:X O *D sg13g2_buf_1
*CAP
1 results[77] 0.00148256
2 *1795:X 0.00148256
3 results[77] *1130:10 0
4 results[79] results[77] 0
5 *1794:A results[77] 0
6 *1033:16 results[77] 0
7 *1035:8 results[77] 0
*RES
1 *1795:X results[77] 33.1824 
*END

*D_NET *1037 0.00396797
*CONN
*P results[76] O
*I *1796:X O *D sg13g2_buf_1
*CAP
1 results[76] 0.00105503
2 *1796:X 0.000481642
3 *1037:8 0.00153668
4 results[78] results[76] 0.00089462
5 results[79] *1037:8 0
6 *1035:8 *1037:8 0
*RES
1 *1796:X *1037:8 44.84 
2 *1037:8 results[76] 31.1672 
*END

*D_NET *1038 0.00411692
*CONN
*P results[47] O
*I *1797:X O *D sg13g2_buf_1
*CAP
1 results[47] 0.00196841
2 *1797:X 9.00529e-05
3 *1038:8 0.00205846
4 results[47] results[45] 0
5 results[47] results[46] 0
6 results[47] *1039:10 0
7 results[47] *1109:8 0
8 *1357:A1 *1038:8 0
*RES
1 *1797:X *1038:8 40.8272 
2 *1038:8 results[47] 39.8528 
*END

*D_NET *1039 0.00291638
*CONN
*P results[46] O
*I *1798:X O *D sg13g2_buf_1
*CAP
1 results[46] 0.000523053
2 *1798:X 0.000935136
3 *1039:10 0.00145819
4 results[46] results[45] 0
5 results[47] results[46] 0
6 results[47] *1039:10 0
*RES
1 *1798:X *1039:10 49.7592 
2 *1039:10 results[46] 25.324 
*END

*D_NET *1040 0.00343993
*CONN
*P results[45] O
*I *1799:X O *D sg13g2_buf_1
*CAP
1 results[45] 0.00127131
2 *1799:X 0.000448652
3 *1040:8 0.00171996
4 results[46] results[45] 0
5 results[47] results[45] 0
*RES
1 *1799:X *1040:8 44.6288 
2 *1040:8 results[45] 32.8568 
*END

*D_NET *1041 0.00160763
*CONN
*P results[44] O
*I *1800:X O *D sg13g2_buf_1
*CAP
1 results[44] 0.000803815
2 *1800:X 0.000803815
*RES
1 *1800:X results[44] 28.3248 
*END

*D_NET *1042 0.00485847
*CONN
*P results[15] O
*I *1801:X O *D sg13g2_buf_1
*CAP
1 results[15] 0.00221618
2 *1801:X 2.60714e-05
3 *1042:8 0.00224225
4 results[15] *1088:10 0.000373971
5 results[15] *1090:8 0
6 results[19] results[15] 0
7 results[26] results[15] 0
8 *1850:CLK results[15] 0
9 *931:8 results[15] 0
10 *981:41 results[15] 0
*RES
1 *1801:X *1042:8 40.1936 
2 *1042:8 results[15] 20.1872 
*END

*D_NET *1043 0.00316399
*CONN
*P results[14] O
*I *1802:X O *D sg13g2_buf_1
*CAP
1 results[14] 0.000746563
2 *1802:X 0.00080654
3 *1043:12 0.0015531
4 results[127] results[14] 0
5 results[16] results[14] 0
6 *827:13 *1043:12 5.77829e-05
7 *830:11 results[14] 0
8 *873:8 results[14] 0
9 *873:8 *1043:12 0
*RES
1 *1802:X *1043:12 47.128 
2 *1043:12 results[14] 5.9576 
*END

*D_NET *1044 0.00556637
*CONN
*P results[13] O
*I *1803:X O *D sg13g2_buf_1
*CAP
1 results[13] 0.00275863
2 *1803:X 2.45556e-05
3 *1044:8 0.00278318
4 results[13] results[12] 0
5 results[31] results[13] 0
6 results[58] results[13] 0
7 results[69] results[13] 0
*RES
1 *1803:X *1044:8 40.1936 
2 *1044:8 results[13] 25.1768 
*END

*D_NET *1045 0.0041615
*CONN
*P results[12] O
*I *1804:X O *D sg13g2_buf_1
*CAP
1 results[12] 0.00201495
2 *1804:X 6.58034e-05
3 *1045:8 0.00208075
4 results[113] results[12] 0
5 results[124] results[12] 0
6 results[13] results[12] 0
7 results[58] results[12] 0
8 *828:13 results[12] 0
9 *876:21 *1045:8 0
*RES
1 *1804:X *1045:8 40.616 
2 *1045:8 results[12] 16.8608 
*END

*D_NET *1046 0.00554466
*CONN
*P results[111] O
*I *1805:X O *D sg13g2_buf_1
*CAP
1 results[111] 0.0023552
2 *1805:X 0.000170511
3 *1046:8 0.00252571
4 *1618:B *1046:8 7.508e-05
5 *57:10 results[111] 0.000208975
6 *192:32 results[111] 0
7 *793:9 results[111] 0
8 *799:19 results[111] 0.000209173
*RES
1 *1805:X *1046:8 41.4608 
2 *1046:8 results[111] 20.7416 
*END

*D_NET *1047 0.00450988
*CONN
*P results[110] O
*I *1806:X O *D sg13g2_buf_1
*CAP
1 results[110] 0.0021298
2 *1806:X 0.000125137
3 *1047:8 0.00225494
4 results[110] *1148:8 0
5 *1515:A1 results[110] 0
6 *1515:A1 *1047:8 0
7 *1808:A results[110] 0
*RES
1 *1806:X *1047:8 41.2496 
2 *1047:8 results[110] 23.3288 
*END

*D_NET *1048 0.00661057
*CONN
*P results[109] O
*I *1807:X O *D sg13g2_buf_1
*CAP
1 results[109] 0.00264921
2 *1807:X 7.72743e-05
3 *1048:8 0.00272648
4 *1500:A2 results[109] 0
5 *1908:CLK results[109] 0
6 *520:10 results[109] 0
7 *526:8 results[109] 0.00115761
8 *534:66 results[109] 0
9 *534:75 results[109] 0
10 *976:30 results[109] 0
11 *976:49 results[109] 0
*RES
1 *1807:X *1048:8 40.616 
2 *1048:8 results[109] 26.7344 
*END

*D_NET *1049 0.00486825
*CONN
*P results[108] O
*I *1808:X O *D sg13g2_buf_1
*CAP
1 results[108] 0.00173114
2 *1808:X 0.000245995
3 *1049:8 0.00197714
4 *1879:CLK results[108] 0.000590297
5 *1881:D *1049:8 0
6 *192:43 results[108] 0.000242885
7 *793:9 results[108] 0
8 *794:11 results[108] 0
9 *800:11 *1049:8 0
10 *987:75 *1049:8 8.07925e-05
*RES
1 *1808:X *1049:8 42.3056 
2 *1049:8 results[108] 17.248 
*END

*D_NET *1050 0.00342534
*CONN
*I *1750:A I *D sg13g2_buf_4
*I *1745:A I *D sg13g2_buf_2
*I *1752:A I *D sg13g2_buf_2
*I *1809:X O *D sg13g2_buf_1
*CAP
1 *1750:A 5.9972e-05
2 *1745:A 0
3 *1752:A 0
4 *1809:X 0.000379353
5 *1050:29 0.000518174
6 *1050:21 0.00131134
7 *1050:14 0.000755171
8 *1050:10 0.000401325
9 *1181:A1 *1050:29 0
10 *1192:A1 *1050:29 0
11 *1810:A *1050:14 0
12 *1810:A *1050:21 0
13 *648:13 *1750:A 0
14 *648:13 *1050:21 0
15 *985:40 *1050:10 0
16 *991:10 *1750:A 0
17 *991:10 *1050:21 0
*RES
1 *1809:X *1050:10 43.2384 
2 *1050:10 *1050:14 20.2002 
3 *1050:14 *1752:A 20 
4 *1050:14 *1050:21 7.7902 
5 *1050:21 *1050:29 45.3966 
6 *1050:29 *1745:A 20 
7 *1050:21 *1750:A 20.5104 
*END

*D_NET *1051 0.00118791
*CONN
*I *1439:A I *D sg13g2_and2_1
*I *1744:A I *D sg13g2_buf_4
*I *1810:X O *D sg13g2_buf_1
*CAP
1 *1439:A 0.000160842
2 *1744:A 0
3 *1810:X 0.000123935
4 *1051:8 0.000284777
5 *1181:A2 *1439:A 0
6 *1181:A2 *1051:8 0
7 *1439:B *1439:A 0.000250288
8 *1439:B *1051:8 0
9 *1810:A *1051:8 0
10 *991:20 *1051:8 0.000368073
*RES
1 *1810:X *1051:8 21.7336 
2 *1051:8 *1744:A 20 
3 *1051:8 *1439:A 21.8128 
*END

*D_NET *1052 0.00290565
*CONN
*I *1670:A I *D sg13g2_nand2_1
*I *1811:X O *D sg13g2_buf_1
*CAP
1 *1670:A 0.000752395
2 *1811:X 0.000752395
3 *1671:B *1670:A 0
4 *1671:A *1670:A 0.00103277
5 *1672:A1 *1670:A 2.15444e-05
6 *1672:A2 *1670:A 0
7 *1770:A *1670:A 0
8 *690:33 *1670:A 0
9 *834:19 *1670:A 0
10 *975:54 *1670:A 2.20968e-05
11 *992:33 *1670:A 0.000234415
12 *1010:10 *1670:A 0
13 *1011:6 *1670:A 0
14 *1011:21 *1670:A 0
15 *1027:34 *1670:A 9.00323e-05
*RES
1 *1811:X *1670:A 48.6394 
*END

*D_NET *1053 0.00181658
*CONN
*I *1667:A I *D sg13g2_nand2_1
*I *1812:X O *D sg13g2_buf_1
*CAP
1 *1667:A 0.000908291
2 *1812:X 0.000908291
3 *1772:A *1667:A 0
4 *75:12 *1667:A 0
5 *832:25 *1667:A 0
6 *834:19 *1667:A 0
7 *975:62 *1667:A 0
*RES
1 *1812:X *1667:A 47.7 
*END

*D_NET *1054 0.000335651
*CONN
*I *1663:A I *D sg13g2_nand2_1
*I *1813:X O *D sg13g2_buf_1
*CAP
1 *1663:A 0.000111445
2 *1813:X 0.000111445
3 *1665:A1 *1663:A 2.21361e-05
4 *1665:B1 *1663:A 1.54556e-05
5 *833:9 *1663:A 0
6 *1027:34 *1663:A 7.51684e-05
*RES
1 *1813:X *1663:A 41.1 
*END

*D_NET *1055 0.000883386
*CONN
*I *1660:A I *D sg13g2_nand2_1
*I *1814:X O *D sg13g2_buf_1
*CAP
1 *1660:A 0
2 *1814:X 0.000148602
3 *1055:10 0.000148602
4 *1898:D *1055:10 7.51291e-05
5 *73:10 *1055:10 0.000145556
6 *827:13 *1055:10 0.000210685
7 *832:25 *1055:10 0
8 *1027:16 *1055:10 0
9 *1027:48 *1055:10 0.000106065
10 *1027:58 *1055:10 4.87466e-05
*RES
1 *1814:X *1055:10 41.8128 
2 *1055:10 *1660:A 40 
*END

*D_NET *1056 0.000585663
*CONN
*I *1656:A I *D sg13g2_nand2_1
*I *1815:X O *D sg13g2_buf_1
*CAP
1 *1656:A 0.000292832
2 *1815:X 0.000292832
3 *1658:A *1656:A 0
4 *1897:D *1656:A 0
5 *984:77 *1656:A 0
*RES
1 *1815:X *1656:A 42.6312 
*END

*D_NET *1057 0.00137557
*CONN
*I *1652:A I *D sg13g2_nand2_1
*I *1816:X O *D sg13g2_buf_1
*CAP
1 *1652:A 0
2 *1816:X 0.000687785
3 *1057:10 0.000687785
4 *1653:B *1057:10 0
5 *1669:A2 *1057:10 0
6 *150:10 *1057:10 0
7 *975:10 *1057:10 0
8 *975:16 *1057:10 0
9 *1020:18 *1057:10 0
10 *1020:20 *1057:10 0
*RES
1 *1816:X *1057:10 45.5616 
2 *1057:10 *1652:A 40 
*END

*D_NET *1058 0.000334829
*CONN
*I *1649:A I *D sg13g2_nand2_1
*I *1817:X O *D sg13g2_buf_1
*CAP
1 *1649:A 0.000167415
2 *1817:X 0.000167415
3 *1651:A1 *1649:A 0
4 *992:82 *1649:A 0
*RES
1 *1817:X *1649:A 41.672 
*END

*D_NET *1059 0.000271843
*CONN
*I *1646:A I *D sg13g2_nand2_1
*I *1818:X O *D sg13g2_buf_1
*CAP
1 *1646:A 0.000124938
2 *1818:X 0.000124938
3 *1571:A2 *1646:A 0
4 *1648:A1 *1646:A 2.19663e-05
5 *664:26 *1646:A 0
*RES
1 *1818:X *1646:A 41.1 
*END

*D_NET *1060 0.000482784
*CONN
*I *1618:A I *D sg13g2_nand2_1
*I *1819:X O *D sg13g2_buf_1
*CAP
1 *1618:A 0.000211629
2 *1819:X 0.000211629
3 *1615:B *1618:A 2.20968e-05
4 *1618:B *1618:A 3.74279e-05
5 *192:32 *1618:A 0
*RES
1 *1819:X *1618:A 42.0768 
*END

*D_NET *1061 0.000331969
*CONN
*I *1615:A I *D sg13g2_nand2_1
*I *1820:X O *D sg13g2_buf_1
*CAP
1 *1615:A 0.000115194
2 *1820:X 0.000115194
3 *1615:B *1615:A 0.00010158
*RES
1 *1820:X *1615:A 41.1 
*END

*D_NET *1062 0.000881824
*CONN
*I *1610:A I *D sg13g2_nand2_1
*I *1821:X O *D sg13g2_buf_1
*CAP
1 *1610:A 0.000205221
2 *1821:X 0.000205221
3 *798:9 *1610:A 0
4 *1022:76 *1610:A 0.000471383
*RES
1 *1821:X *1610:A 42.156 
*END

*D_NET *1063 0.00155049
*CONN
*I *1607:A I *D sg13g2_nand2_1
*I *1822:X O *D sg13g2_buf_1
*CAP
1 *1607:A 0.000764195
2 *1822:X 0.000764195
3 *1607:B *1607:A 0
4 *1608:B *1607:A 0
5 *1608:C *1607:A 0
6 *1609:A1 *1607:A 0
7 *1609:A2 *1607:A 0
8 *107:10 *1607:A 0
9 *192:9 *1607:A 0
10 *797:9 *1607:A 0
11 *1026:42 *1607:A 0
12 *1026:50 *1607:A 2.20968e-05
*RES
1 *1822:X *1607:A 45.632 
*END

*D_NET *1064 0.000442395
*CONN
*I *1603:A I *D sg13g2_nand2_1
*I *1823:X O *D sg13g2_buf_1
*CAP
1 *1603:A 0.000119882
2 *1823:X 0.000119882
3 *1605:C *1603:A 4.79124e-05
4 *107:10 *1603:A 0
5 *795:15 *1603:A 0.000154717
6 *984:192 *1603:A 0
*RES
1 *1823:X *1603:A 41.1 
*END

*D_NET *1065 0.00041569
*CONN
*I *1600:A I *D sg13g2_nand2_1
*I *1824:X O *D sg13g2_buf_1
*CAP
1 *1600:A 9.58925e-05
2 *1824:X 9.58925e-05
3 *1600:B *1600:A 0
4 *1602:A1 *1600:A 0
5 *1602:B1 *1600:A 0.000223905
6 *1617:A2 *1600:A 0
*RES
1 *1824:X *1600:A 41.1 
*END

*D_NET *1066 0.000235852
*CONN
*I *1597:A I *D sg13g2_nand2_1
*I *1825:X O *D sg13g2_buf_1
*CAP
1 *1597:A 0.000117926
2 *1825:X 0.000117926
3 *1597:B *1597:A 0
4 *1599:A1 *1597:A 0
5 *984:166 *1597:A 0
*RES
1 *1825:X *1597:A 41.1 
*END

*D_NET *1067 0.00121226
*CONN
*I *1594:A I *D sg13g2_nand2_1
*I *1826:X O *D sg13g2_buf_1
*CAP
1 *1594:A 0
2 *1826:X 0.00034638
3 *1067:10 0.00034638
4 *1597:B *1067:10 4.8613e-05
5 *183:37 *1067:10 0
6 *671:8 *1067:10 0
7 *792:19 *1067:10 0
8 *1026:50 *1067:10 0.000423148
9 *1026:52 *1067:10 4.77421e-05
*RES
1 *1826:X *1067:10 43.0536 
2 *1067:10 *1594:A 40 
*END

*D_NET *1068 0.000876593
*CONN
*I *1567:A I *D sg13g2_nand2_1
*I *1827:X O *D sg13g2_buf_1
*CAP
1 *1567:A 0
2 *1827:X 0.000333229
3 *1068:10 0.000333229
4 *1068:10 *1070:10 0
5 *1557:A *1068:10 0
6 *1559:B *1068:10 0
7 *1561:B1 *1068:10 0
8 *658:23 *1068:10 0
9 *983:51 *1068:10 0.000210135
*RES
1 *1827:X *1068:10 42.8424 
2 *1068:10 *1567:A 40 
*END

*D_NET *1069 0.00171068
*CONN
*I *1563:A I *D sg13g2_nand2_1
*I *1828:X O *D sg13g2_buf_1
*CAP
1 *1563:A 0.000422627
2 *1828:X 0.000422627
3 *1545:A1 *1563:A 0
4 *1545:A2 *1563:A 0
5 *1563:B *1563:A 2.19663e-05
6 *1855:CLK *1563:A 0
7 *994:20 *1563:A 0.000268753
8 *994:30 *1563:A 0.00057471
9 *1025:43 *1563:A 0
*RES
1 *1828:X *1563:A 44.2064 
*END

*D_NET *1070 0.00128488
*CONN
*I *1559:A I *D sg13g2_nand2_1
*I *1829:X O *D sg13g2_buf_1
*CAP
1 *1559:A 0
2 *1829:X 0.000366618
3 *1070:10 0.000366618
4 *1559:B *1070:10 0
5 *1560:B *1070:10 0
6 *1861:D *1070:10 0.000340896
7 *38:8 *1070:10 0
8 *40:8 *1070:10 0.000210746
9 *1068:10 *1070:10 0
*RES
1 *1829:X *1070:10 43.9248 
2 *1070:10 *1559:A 40 
*END

*D_NET *1071 0.00172707
*CONN
*I *1555:A I *D sg13g2_nand2_1
*I *1830:X O *D sg13g2_buf_1
*CAP
1 *1555:A 0
2 *1830:X 0.000617255
3 *1071:14 0.000617255
4 *1071:14 *1073:10 0
5 *1549:B *1071:14 0
6 *1551:A1 *1071:14 0.000390748
7 *1555:B *1071:14 0
8 *1557:C *1071:14 0
9 *1558:A1 *1071:14 2.16652e-05
10 *1858:D *1071:14 0
11 *37:10 *1071:14 8.01443e-05
12 *994:55 *1071:14 0
*RES
1 *1830:X *1071:14 45.5792 
2 *1071:14 *1555:A 40 
*END

*D_NET *1072 0.00117431
*CONN
*I *1552:A I *D sg13g2_nand2_1
*I *1831:X O *D sg13g2_buf_1
*CAP
1 *1552:A 0
2 *1831:X 0.00029031
3 *1072:10 0.00029031
4 *1552:B *1072:10 0.000178388
5 *656:23 *1072:10 0
6 *765:11 *1072:10 0
7 *994:95 *1072:10 0
8 *1025:71 *1072:10 0.000367562
9 *1025:75 *1072:10 4.77421e-05
*RES
1 *1831:X *1072:10 43.0536 
2 *1072:10 *1552:A 40 
*END

*D_NET *1073 0.000618831
*CONN
*I *1549:A I *D sg13g2_nand2_1
*I *1832:X O *D sg13g2_buf_1
*CAP
1 *1549:A 0
2 *1832:X 0.000237002
3 *1073:10 0.000237002
4 *35:10 *1073:10 0.000144827
5 *994:55 *1073:10 0
6 *1071:14 *1073:10 0
*RES
1 *1832:X *1073:10 42.2352 
2 *1073:10 *1549:A 40 
*END

*D_NET *1074 0.00123596
*CONN
*I *1546:A I *D sg13g2_nand2_1
*I *1833:X O *D sg13g2_buf_1
*CAP
1 *1546:A 0
2 *1833:X 0.000528742
3 *1074:10 0.000528742
4 *1546:B *1074:10 0
5 *1549:B *1074:10 0
6 *1855:D *1074:10 0
7 *994:39 *1074:10 0
8 *994:43 *1074:10 0
9 *1025:45 *1074:10 0.000178478
10 *1025:71 *1074:10 0
*RES
1 *1833:X *1074:10 45.192 
2 *1074:10 *1546:A 40 
*END

*D_NET *1075 0.000261698
*CONN
*I *1543:A I *D sg13g2_nand2_1
*I *1834:X O *D sg13g2_buf_1
*CAP
1 *1543:A 0.000130849
2 *1834:X 0.000130849
3 *1025:24 *1543:A 0
*RES
1 *1834:X *1543:A 41.1 
*END

*D_NET *1076 0.000434517
*CONN
*I *1723:A I *D sg13g2_nand2_1
*I *1835:X O *D sg13g2_buf_1
*CAP
1 *1723:A 0.000113633
2 *1835:X 0.000113633
3 *1724:B *1723:A 0
4 *704:32 *1723:A 0.000207251
*RES
1 *1835:X *1723:A 41.1 
*END

*D_NET *1077 0.000752565
*CONN
*I *1720:A I *D sg13g2_nand2_1
*I *1836:X O *D sg13g2_buf_1
*CAP
1 *1720:A 0.000257721
2 *1836:X 0.000257721
3 *1678:A2 *1720:A 0
4 *1738:A *1720:A 0.000101645
5 *1023:14 *1720:A 3.36976e-05
6 *1023:25 *1720:A 0
7 *1024:10 *1720:A 0.000101779
*RES
1 *1836:X *1720:A 42.3672 
*END

*D_NET *1078 0.000654808
*CONN
*I *1716:A I *D sg13g2_nand2_1
*I *1837:X O *D sg13g2_buf_1
*CAP
1 *1716:A 9.50183e-05
2 *1837:X 9.50183e-05
3 *1709:B *1716:A 0.000309543
4 *1716:B *1716:A 0.000155228
5 *479:10 *1716:A 0
*RES
1 *1837:X *1716:A 41.3112 
*END

*D_NET *1079 0.000442044
*CONN
*I *1713:A I *D sg13g2_nand2_1
*I *1838:X O *D sg13g2_buf_1
*CAP
1 *1713:A 0.000221022
2 *1838:X 0.000221022
3 *1699:B *1713:A 0
4 *1715:A1 *1713:A 0
5 *1715:B1 *1713:A 0
6 *990:56 *1713:A 0
*RES
1 *1838:X *1713:A 41.9448 
*END

*D_NET *1080 0.00152225
*CONN
*I *1709:A I *D sg13g2_nand2_1
*I *1839:X O *D sg13g2_buf_1
*CAP
1 *1709:A 0.000396043
2 *1839:X 0.000396043
3 *1712:A1 *1709:A 0
4 *1918:CLK *1709:A 0.000234455
5 *196:10 *1709:A 0
6 *479:10 *1709:A 0.000393929
7 *978:20 *1709:A 0.000101779
8 *989:42 *1709:A 0
*RES
1 *1839:X *1709:A 44.5232 
*END

*D_NET *1081 0.00253642
*CONN
*I *1706:A I *D sg13g2_nand2_1
*I *1840:X O *D sg13g2_buf_1
*CAP
1 *1706:A 0.000562992
2 *1840:X 0.000562992
3 *1703:B *1706:A 0
4 *1705:A2 *1706:A 0.000180665
5 *1708:A2 *1706:A 0
6 *88:10 *1706:A 0.000550744
7 *740:13 *1706:A 0
8 *741:13 *1706:A 0.000339523
9 *741:21 *1706:A 0.000339508
*RES
1 *1840:X *1706:A 45.808 
*END

*D_NET *1082 0.00143966
*CONN
*I *1703:A I *D sg13g2_nand2_1
*I *1841:X O *D sg13g2_buf_1
*CAP
1 *1703:A 0
2 *1841:X 0.000416329
3 *1082:14 0.000416329
4 *1915:D *1082:14 0
5 *88:10 *1082:14 0
6 *188:10 *1082:14 0
7 *742:17 *1082:14 0.000607002
8 *743:17 *1082:14 0
*RES
1 *1841:X *1082:14 44.4968 
2 *1082:14 *1703:A 40 
*END

*D_NET *1083 0.00109161
*CONN
*I *1699:A I *D sg13g2_nand2_1
*I *1842:X O *D sg13g2_buf_1
*CAP
1 *1699:A 0
2 *1842:X 0.000545805
3 *1083:10 0.000545805
4 *1083:10 *1154:8 0
5 *1699:B *1083:10 0
6 *1839:A *1083:10 0
7 *1914:D *1083:10 0
8 *87:8 *1083:10 0
9 *979:48 *1083:10 0
10 *990:90 *1083:10 0
*RES
1 *1842:X *1083:10 44.9808 
2 *1083:10 *1699:A 40 
*END

*D_NET *1084 0.000270905
*CONN
*I *1844:RESET_B I *D sg13g2_dfrbp_1
*I *2035:L_HI O *D sg13g2_tiehi
*CAP
1 *1844:RESET_B 0.000135452
2 *2035:L_HI 0.000135452
*RES
1 *2035:L_HI *1844:RESET_B 21.3376 
*END

*D_NET *1085 0.000467063
*CONN
*I *1845:RESET_B I *D sg13g2_dfrbp_1
*I *2036:L_HI O *D sg13g2_tiehi
*CAP
1 *1845:RESET_B 0
2 *2036:L_HI 0.000233531
3 *1085:8 0.000233531
4 *231:48 *1085:8 0
*RES
1 *2036:L_HI *1085:8 41.2936 
2 *1085:8 *1845:RESET_B 20 
*END

*D_NET *1086 0.00341378
*CONN
*I *1846:RESET_B I *D sg13g2_dfrbp_1
*I *2037:L_HI O *D sg13g2_tiehi
*CAP
1 *1846:RESET_B 0
2 *2037:L_HI 0.000814023
3 *1086:10 0.000814023
4 *1086:10 *1087:12 0.000287904
5 *1532:B_N *1086:10 0
6 *1846:CLK *1086:10 0.00026016
7 *232:10 *1086:10 0
8 *232:20 *1086:10 0
9 *546:10 *1086:10 0
10 *652:47 *1086:10 0
11 *653:16 *1086:10 0
12 *653:25 *1086:10 0.000961032
13 *980:49 *1086:10 0.000276634
*RES
1 *2037:L_HI *1086:10 48.1224 
2 *1086:10 *1846:RESET_B 20 
*END

*D_NET *1087 0.00271342
*CONN
*I *1847:RESET_B I *D sg13g2_dfrbp_1
*I *2038:L_HI O *D sg13g2_tiehi
*CAP
1 *1847:RESET_B 0
2 *2038:L_HI 0.000691706
3 *1087:12 0.000691706
4 *232:10 *1087:12 0
5 *652:47 *1087:12 0.00079806
6 *980:49 *1087:12 0.00024404
7 *981:28 *1087:12 0
8 *1086:10 *1087:12 0.000287904
*RES
1 *2038:L_HI *1087:12 46.7848 
2 *1087:12 *1847:RESET_B 20 
*END

*D_NET *1088 0.00162873
*CONN
*I *1848:RESET_B I *D sg13g2_dfrbp_1
*I *2039:L_HI O *D sg13g2_tiehi
*CAP
1 *1848:RESET_B 0
2 *2039:L_HI 0.000288672
3 *1088:10 0.000288672
4 results[15] *1088:10 0.000373971
5 *1264:A *1088:10 0.000287864
6 *1268:A1 *1088:10 0
7 *1850:CLK *1088:10 0.000341437
8 *981:41 *1088:10 4.81157e-05
*RES
1 *2039:L_HI *1088:10 43.2648 
2 *1088:10 *1848:RESET_B 20 
*END

*D_NET *1089 0.000370787
*CONN
*I *1849:RESET_B I *D sg13g2_dfrbp_1
*I *2040:L_HI O *D sg13g2_tiehi
*CAP
1 *1849:RESET_B 0
2 *2040:L_HI 0.000185394
3 *1089:10 0.000185394
4 *1267:B1 *1089:10 0
5 *232:20 *1089:10 0
6 *875:12 *1089:10 0
7 *981:28 *1089:10 0
*RES
1 *2040:L_HI *1089:10 41.6808 
2 *1089:10 *1849:RESET_B 20 
*END

*D_NET *1090 0.00044457
*CONN
*I *1850:RESET_B I *D sg13g2_dfrbp_1
*I *2041:L_HI O *D sg13g2_tiehi
*CAP
1 *1850:RESET_B 0
2 *2041:L_HI 0.000222285
3 *1090:8 0.000222285
4 results[15] *1090:8 0
*RES
1 *2041:L_HI *1090:8 42.1208 
2 *1090:8 *1850:RESET_B 20 
*END

*D_NET *1091 0.000270905
*CONN
*I *1851:RESET_B I *D sg13g2_dfrbp_1
*I *2042:L_HI O *D sg13g2_tiehi
*CAP
1 *1851:RESET_B 0.000135452
2 *2042:L_HI 0.000135452
*RES
1 *2042:L_HI *1851:RESET_B 21.3376 
*END

*D_NET *1092 0.0004508
*CONN
*I *1852:RESET_B I *D sg13g2_dfrbp_1
*I *2043:L_HI O *D sg13g2_tiehi
*CAP
1 *1852:RESET_B 0
2 *2043:L_HI 0.0002254
3 *1092:8 0.0002254
4 *1:8 *1092:8 0
5 *205:22 *1092:8 0
*RES
1 *2043:L_HI *1092:8 42.1208 
2 *1092:8 *1852:RESET_B 20 
*END

*D_NET *1093 0.000280753
*CONN
*I *1853:RESET_B I *D sg13g2_dfrbp_1
*I *2044:L_HI O *D sg13g2_tiehi
*CAP
1 *1853:RESET_B 0.000140376
2 *2044:L_HI 0.000140376
3 *1176:A *1853:RESET_B 0
4 *1853:D *1853:RESET_B 0
*RES
1 *2044:L_HI *1853:RESET_B 21.3376 
*END

*D_NET *1094 0.000275947
*CONN
*I *1854:RESET_B I *D sg13g2_dfrbp_1
*I *2045:L_HI O *D sg13g2_tiehi
*CAP
1 *1854:RESET_B 0.000137973
2 *2045:L_HI 0.000137973
*RES
1 *2045:L_HI *1854:RESET_B 21.3376 
*END

*D_NET *1095 0.000752423
*CONN
*I *1855:RESET_B I *D sg13g2_dfrbp_1
*I *2046:L_HI O *D sg13g2_tiehi
*CAP
1 *1855:RESET_B 0
2 *2046:L_HI 0.000222468
3 *1095:8 0.000222468
4 *994:39 *1095:8 0
5 *1025:35 *1095:8 0
6 *1025:43 *1095:8 0.000307487
*RES
1 *2046:L_HI *1095:8 42.1208 
2 *1095:8 *1855:RESET_B 20 
*END

*D_NET *1096 0.000265146
*CONN
*I *1856:RESET_B I *D sg13g2_dfrbp_1
*I *2047:L_HI O *D sg13g2_tiehi
*CAP
1 *1856:RESET_B 0.000132573
2 *2047:L_HI 0.000132573
*RES
1 *2047:L_HI *1856:RESET_B 21.3376 
*END

*D_NET *1097 0.000270905
*CONN
*I *1857:RESET_B I *D sg13g2_dfrbp_1
*I *2048:L_HI O *D sg13g2_tiehi
*CAP
1 *1857:RESET_B 0.000135452
2 *2048:L_HI 0.000135452
*RES
1 *2048:L_HI *1857:RESET_B 21.3376 
*END

*D_NET *1098 0.00116469
*CONN
*I *1858:RESET_B I *D sg13g2_dfrbp_1
*I *2049:L_HI O *D sg13g2_tiehi
*CAP
1 *1858:RESET_B 0
2 *2049:L_HI 0.00020187
3 *1098:8 0.00020187
4 *1557:B *1098:8 0.000340679
5 *1557:C *1098:8 0.000307702
6 *1021:67 *1098:8 3.25342e-05
7 *1029:43 *1098:8 8.00335e-05
*RES
1 *2049:L_HI *1098:8 42.1208 
2 *1098:8 *1858:RESET_B 20 
*END

*D_NET *1099 0.000387431
*CONN
*I *1859:RESET_B I *D sg13g2_dfrbp_1
*I *2050:L_HI O *D sg13g2_tiehi
*CAP
1 *1859:RESET_B 0
2 *2050:L_HI 0.000193715
3 *1099:8 0.000193715
4 *997:10 *1099:8 0
*RES
1 *2050:L_HI *1099:8 42.1208 
2 *1099:8 *1859:RESET_B 20 
*END

*D_NET *1100 0.000721909
*CONN
*I *1860:RESET_B I *D sg13g2_dfrbp_1
*I *2051:L_HI O *D sg13g2_tiehi
*CAP
1 *1860:RESET_B 0
2 *2051:L_HI 0.000336648
3 *1100:10 0.000336648
4 *983:10 *1100:10 0
5 *994:10 *1100:10 4.8613e-05
6 *1029:30 *1100:10 0
*RES
1 *2051:L_HI *1100:10 42.7368 
2 *1100:10 *1860:RESET_B 20 
*END

*D_NET *1101 0.000270905
*CONN
*I *1861:RESET_B I *D sg13g2_dfrbp_1
*I *2052:L_HI O *D sg13g2_tiehi
*CAP
1 *1861:RESET_B 0.000135452
2 *2052:L_HI 0.000135452
*RES
1 *2052:L_HI *1861:RESET_B 21.3376 
*END

*D_NET *1102 0.000423943
*CONN
*I *1862:RESET_B I *D sg13g2_dfrbp_1
*I *2053:L_HI O *D sg13g2_tiehi
*CAP
1 *1862:RESET_B 0
2 *2053:L_HI 0.000211971
3 *1102:8 0.000211971
4 *41:10 *1102:8 0
*RES
1 *2053:L_HI *1102:8 42.1208 
2 *1102:8 *1862:RESET_B 20 
*END

*D_NET *1103 0.000264543
*CONN
*I *1863:RESET_B I *D sg13g2_dfrbp_1
*I *2054:L_HI O *D sg13g2_tiehi
*CAP
1 *1863:RESET_B 0
2 *2054:L_HI 0.000132272
3 *1103:8 0.000132272
4 *42:8 *1103:8 0
*RES
1 *2054:L_HI *1103:8 41.3816 
2 *1103:8 *1863:RESET_B 20 
*END

*D_NET *1104 0.000487562
*CONN
*I *1864:RESET_B I *D sg13g2_dfrbp_1
*I *2055:L_HI O *D sg13g2_tiehi
*CAP
1 *1864:RESET_B 0
2 *2055:L_HI 0.000243781
3 *1104:10 0.000243781
4 *1863:CLK *1104:10 0
5 *988:44 *1104:10 0
*RES
1 *2055:L_HI *1104:10 42.42 
2 *1104:10 *1864:RESET_B 20 
*END

*D_NET *1105 0.000311682
*CONN
*I *1865:RESET_B I *D sg13g2_dfrbp_1
*I *2056:L_HI O *D sg13g2_tiehi
*CAP
1 *1865:RESET_B 0
2 *2056:L_HI 0.000155841
3 *1105:8 0.000155841
4 *1865:CLK *1105:8 0
*RES
1 *2056:L_HI *1105:8 41.3816 
2 *1105:8 *1865:RESET_B 20 
*END

*D_NET *1106 0.00145736
*CONN
*I *1866:RESET_B I *D sg13g2_dfrbp_1
*I *2057:L_HI O *D sg13g2_tiehi
*CAP
1 *1866:RESET_B 0
2 *2057:L_HI 0.000574588
3 *1106:12 0.000574588
4 *1106:12 *1867:RESET_B 0
5 *1867:CLK *1106:12 0.00027559
6 *186:21 *1106:12 3.25945e-05
7 *668:24 *1106:12 0
8 *668:38 *1106:12 0
9 *669:14 *1106:12 0
*RES
1 *2057:L_HI *1106:12 45.676 
2 *1106:12 *1866:RESET_B 20 
*END

*D_NET *1107 0.000266521
*CONN
*I *1867:RESET_B I *D sg13g2_dfrbp_1
*I *2058:L_HI O *D sg13g2_tiehi
*CAP
1 *1867:RESET_B 0.000133261
2 *2058:L_HI 0.000133261
3 *1106:12 *1867:RESET_B 0
*RES
1 *2058:L_HI *1867:RESET_B 21.3376 
*END

*D_NET *1108 0.000378897
*CONN
*I *1868:RESET_B I *D sg13g2_dfrbp_1
*I *2059:L_HI O *D sg13g2_tiehi
*CAP
1 *1868:RESET_B 0
2 *2059:L_HI 0.000189449
3 *1108:8 0.000189449
4 *186:63 *1108:8 0
*RES
1 *2059:L_HI *1108:8 42.1208 
2 *1108:8 *1868:RESET_B 20 
*END

*D_NET *1109 0.00027044
*CONN
*I *1869:RESET_B I *D sg13g2_dfrbp_1
*I *2060:L_HI O *D sg13g2_tiehi
*CAP
1 *1869:RESET_B 0
2 *2060:L_HI 0.00013522
3 *1109:8 0.00013522
4 results[47] *1109:8 0
*RES
1 *2060:L_HI *1109:8 41.3816 
2 *1109:8 *1869:RESET_B 20 
*END

*D_NET *1110 0.000683138
*CONN
*I *1870:RESET_B I *D sg13g2_dfrbp_1
*I *2061:L_HI O *D sg13g2_tiehi
*CAP
1 *1870:RESET_B 0
2 *2061:L_HI 0.000341569
3 *1110:8 0.000341569
4 *984:207 *1110:8 0
*RES
1 *2061:L_HI *1110:8 43.2296 
2 *1110:8 *1870:RESET_B 20 
*END

*D_NET *1111 0.000411737
*CONN
*I *1871:RESET_B I *D sg13g2_dfrbp_1
*I *2062:L_HI O *D sg13g2_tiehi
*CAP
1 *1871:RESET_B 0.000205868
2 *2062:L_HI 0.000205868
*RES
1 *2062:L_HI *1871:RESET_B 22.0768 
*END

*D_NET *1112 0.000568136
*CONN
*I *1872:RESET_B I *D sg13g2_dfrbp_1
*I *2063:L_HI O *D sg13g2_tiehi
*CAP
1 *1872:RESET_B 0
2 *2063:L_HI 0.000284068
3 *1112:10 0.000284068
4 *1192:A2 *1112:10 0
5 *1192:A1 *1112:10 0
*RES
1 *2063:L_HI *1112:10 42.8424 
2 *1112:10 *1872:RESET_B 20 
*END

*D_NET *1113 0.000270905
*CONN
*I *1873:RESET_B I *D sg13g2_dfrbp_1
*I *2064:L_HI O *D sg13g2_tiehi
*CAP
1 *1873:RESET_B 0.000135452
2 *2064:L_HI 0.000135452
3 *1182:A *1873:RESET_B 0
*RES
1 *2064:L_HI *1873:RESET_B 21.3376 
*END

*D_NET *1114 0.00177923
*CONN
*I *1874:RESET_B I *D sg13g2_dfrbp_1
*I *2065:L_HI O *D sg13g2_tiehi
*CAP
1 *1874:RESET_B 0
2 *2065:L_HI 0.000382166
3 *1114:10 0.000382166
4 *1186:A2 *1114:10 0.0001818
5 *1595:C *1114:10 0.000242298
6 *1789:A *1114:10 8.00835e-05
7 *51:10 *1114:10 0.000382555
8 *183:22 *1114:10 0
9 *379:14 *1114:10 0
10 *1030:8 *1114:10 0.000128161
11 *1030:42 *1114:10 0
*RES
1 *2065:L_HI *1114:10 44.1096 
2 *1114:10 *1874:RESET_B 20 
*END

*D_NET *1115 0.000290899
*CONN
*I *1875:RESET_B I *D sg13g2_dfrbp_1
*I *2066:L_HI O *D sg13g2_tiehi
*CAP
1 *1875:RESET_B 0
2 *2066:L_HI 0.000145449
3 *1115:8 0.000145449
4 *987:29 *1115:8 0
*RES
1 *2066:L_HI *1115:8 41.3816 
2 *1115:8 *1875:RESET_B 20 
*END

*D_NET *1116 0.000493026
*CONN
*I *1876:RESET_B I *D sg13g2_dfrbp_1
*I *2067:L_HI O *D sg13g2_tiehi
*CAP
1 *1876:RESET_B 0
2 *2067:L_HI 0.000124166
3 *1116:8 0.000124166
4 *1022:76 *1116:8 0.000244694
*RES
1 *2067:L_HI *1116:8 41.3816 
2 *1116:8 *1876:RESET_B 20 
*END

*D_NET *1117 0.000270608
*CONN
*I *1877:RESET_B I *D sg13g2_dfrbp_1
*I *2068:L_HI O *D sg13g2_tiehi
*CAP
1 *1877:RESET_B 0
2 *2068:L_HI 0.000135304
3 *1117:8 0.000135304
4 *115:8 *1117:8 0
5 *339:10 *1117:8 0
*RES
1 *2068:L_HI *1117:8 41.3816 
2 *1117:8 *1877:RESET_B 20 
*END

*D_NET *1118 0.000499272
*CONN
*I *1878:RESET_B I *D sg13g2_dfrbp_1
*I *2069:L_HI O *D sg13g2_tiehi
*CAP
1 *1878:RESET_B 0
2 *2069:L_HI 0.000127869
3 *1118:8 0.000127869
4 *793:9 *1118:8 0.000243534
*RES
1 *2069:L_HI *1118:8 41.3816 
2 *1118:8 *1878:RESET_B 20 
*END

*D_NET *1119 0.000489711
*CONN
*I *1879:RESET_B I *D sg13g2_dfrbp_1
*I *2070:L_HI O *D sg13g2_tiehi
*CAP
1 *1879:RESET_B 0
2 *2070:L_HI 0.000122836
3 *1119:8 0.000122836
4 *792:19 *1119:8 0
5 *794:15 *1119:8 0.00024404
*RES
1 *2070:L_HI *1119:8 41.3816 
2 *1119:8 *1879:RESET_B 20 
*END

*D_NET *1120 0.000286754
*CONN
*I *1880:RESET_B I *D sg13g2_dfrbp_1
*I *2071:L_HI O *D sg13g2_tiehi
*CAP
1 *1880:RESET_B 0.000143377
2 *2071:L_HI 0.000143377
3 *192:32 *1880:RESET_B 0
4 *800:11 *1880:RESET_B 0
*RES
1 *2071:L_HI *1880:RESET_B 21.1616 
*END

*D_NET *1121 0.000310571
*CONN
*I *1881:RESET_B I *D sg13g2_dfrbp_1
*I *2072:L_HI O *D sg13g2_tiehi
*CAP
1 *1881:RESET_B 0
2 *2072:L_HI 0.000155285
3 *1121:8 0.000155285
4 *792:19 *1121:8 0
5 *794:15 *1121:8 0
*RES
1 *2072:L_HI *1121:8 41.3816 
2 *1121:8 *1881:RESET_B 20 
*END

*D_NET *1122 0.000270905
*CONN
*I *1882:RESET_B I *D sg13g2_dfrbp_1
*I *2073:L_HI O *D sg13g2_tiehi
*CAP
1 *1882:RESET_B 0.000135452
2 *2073:L_HI 0.000135452
*RES
1 *2073:L_HI *1882:RESET_B 21.3376 
*END

*D_NET *1123 0.000271636
*CONN
*I *1883:RESET_B I *D sg13g2_dfrbp_1
*I *2074:L_HI O *D sg13g2_tiehi
*CAP
1 *1883:RESET_B 0.000135818
2 *2074:L_HI 0.000135818
3 *464:12 *1883:RESET_B 0
4 *974:27 *1883:RESET_B 0
*RES
1 *2074:L_HI *1883:RESET_B 21.3376 
*END

*D_NET *1124 0.000270905
*CONN
*I *1884:RESET_B I *D sg13g2_dfrbp_1
*I *2075:L_HI O *D sg13g2_tiehi
*CAP
1 *1884:RESET_B 0.000135452
2 *2075:L_HI 0.000135452
*RES
1 *2075:L_HI *1884:RESET_B 21.3376 
*END

*D_NET *1125 0.00024777
*CONN
*I *1885:RESET_B I *D sg13g2_dfrbp_1
*I *2076:L_HI O *D sg13g2_tiehi
*CAP
1 *1885:RESET_B 0
2 *2076:L_HI 0.000123885
3 *1125:8 0.000123885
*RES
1 *2076:L_HI *1125:8 41.3816 
2 *1125:8 *1885:RESET_B 20 
*END

*D_NET *1126 0.00200423
*CONN
*I *1886:RESET_B I *D sg13g2_dfrbp_1
*I *2077:L_HI O *D sg13g2_tiehi
*CAP
1 *1886:RESET_B 0
2 *2077:L_HI 0.000563979
3 *1126:12 0.000563979
4 *1126:12 *1127:10 0.000665017
5 *467:12 *1126:12 0
6 *685:10 *1126:12 0.000211252
7 *972:45 *1126:12 0
8 *984:94 *1126:12 0
*RES
1 *2077:L_HI *1126:12 46.1512 
2 *1126:12 *1886:RESET_B 20 
*END

*D_NET *1127 0.00141959
*CONN
*I *1887:RESET_B I *D sg13g2_dfrbp_1
*I *2078:L_HI O *D sg13g2_tiehi
*CAP
1 *1887:RESET_B 0
2 *2078:L_HI 0.000377285
3 *1127:10 0.000377285
4 *972:36 *1127:10 0
5 *972:45 *1127:10 0
6 *984:94 *1127:10 0
7 *1126:12 *1127:10 0.000665017
*RES
1 *2078:L_HI *1127:10 43.9512 
2 *1127:10 *1887:RESET_B 20 
*END

*D_NET *1128 0.000412077
*CONN
*I *1888:RESET_B I *D sg13g2_dfrbp_1
*I *2079:L_HI O *D sg13g2_tiehi
*CAP
1 *1888:RESET_B 0
2 *2079:L_HI 0.000206039
3 *1128:8 0.000206039
4 *1447:A *1128:8 0
*RES
1 *2079:L_HI *1128:8 42.1208 
2 *1128:8 *1888:RESET_B 20 
*END

*D_NET *1129 0.000270905
*CONN
*I *1889:RESET_B I *D sg13g2_dfrbp_1
*I *2080:L_HI O *D sg13g2_tiehi
*CAP
1 *1889:RESET_B 0.000135452
2 *2080:L_HI 0.000135452
3 *1889:D *1889:RESET_B 0
*RES
1 *2080:L_HI *1889:RESET_B 21.3376 
*END

*D_NET *1130 0.000663474
*CONN
*I *1890:RESET_B I *D sg13g2_dfrbp_1
*I *2081:L_HI O *D sg13g2_tiehi
*CAP
1 *1890:RESET_B 0
2 *2081:L_HI 0.000331737
3 *1130:10 0.000331737
4 results[77] *1130:10 0
5 *1794:A *1130:10 0
*RES
1 *2081:L_HI *1130:10 43.476 
2 *1130:10 *1890:RESET_B 20 
*END

*D_NET *1131 0.00066742
*CONN
*I *1891:RESET_B I *D sg13g2_dfrbp_1
*I *2082:L_HI O *D sg13g2_tiehi
*CAP
1 *1891:RESET_B 0
2 *2082:L_HI 0.000309808
3 *1131:14 0.000309808
4 *1449:A1 *1131:14 0
5 *973:24 *1131:14 4.78029e-05
*RES
1 *2082:L_HI *1131:14 43.2296 
2 *1131:14 *1891:RESET_B 20 
*END

*D_NET *1132 0.000248724
*CONN
*I *1892:RESET_B I *D sg13g2_dfrbp_1
*I *2083:L_HI O *D sg13g2_tiehi
*CAP
1 *1892:RESET_B 0
2 *2083:L_HI 0.000124362
3 *1132:8 0.000124362
4 *1181:A1 *1132:8 0
*RES
1 *2083:L_HI *1132:8 41.3816 
2 *1132:8 *1892:RESET_B 20 
*END

*D_NET *1133 0.000283261
*CONN
*I *1893:RESET_B I *D sg13g2_dfrbp_1
*I *2084:L_HI O *D sg13g2_tiehi
*CAP
1 *1893:RESET_B 0.00014163
2 *2084:L_HI 0.00014163
3 *1169:A *1893:RESET_B 0
4 *1627:B *1893:RESET_B 0
*RES
1 *2084:L_HI *1893:RESET_B 21.3376 
*END

*D_NET *1134 0.000233358
*CONN
*I *1894:RESET_B I *D sg13g2_dfrbp_1
*I *2085:L_HI O *D sg13g2_tiehi
*CAP
1 *1894:RESET_B 0.000116679
2 *2085:L_HI 0.000116679
3 *1571:A2 *1894:RESET_B 0
4 *1895:D *1894:RESET_B 0
5 *69:10 *1894:RESET_B 0
*RES
1 *2085:L_HI *1894:RESET_B 21.2496 
*END

*D_NET *1135 0.00028934
*CONN
*I *1895:RESET_B I *D sg13g2_dfrbp_1
*I *2086:L_HI O *D sg13g2_tiehi
*CAP
1 *1895:RESET_B 0
2 *2086:L_HI 0.00014467
3 *1135:8 0.00014467
4 *827:13 *1135:8 0
*RES
1 *2086:L_HI *1135:8 41.3816 
2 *1135:8 *1895:RESET_B 20 
*END

*D_NET *1136 0.000409997
*CONN
*I *1896:RESET_B I *D sg13g2_dfrbp_1
*I *2087:L_HI O *D sg13g2_tiehi
*CAP
1 *1896:RESET_B 0
2 *2087:L_HI 0.000204998
3 *1136:8 0.000204998
4 *1419:C *1136:8 0
5 *1027:98 *1136:8 0
*RES
1 *2087:L_HI *1136:8 42.1208 
2 *1136:8 *1896:RESET_B 20 
*END

*D_NET *1137 0.000426576
*CONN
*I *1897:RESET_B I *D sg13g2_dfrbp_1
*I *2088:L_HI O *D sg13g2_tiehi
*CAP
1 *1897:RESET_B 0
2 *2088:L_HI 0.000213288
3 *1137:8 0.000213288
4 *1734:A *1137:8 0
*RES
1 *2088:L_HI *1137:8 42.1208 
2 *1137:8 *1897:RESET_B 20 
*END

*D_NET *1138 0.000704559
*CONN
*I *1898:RESET_B I *D sg13g2_dfrbp_1
*I *2089:L_HI O *D sg13g2_tiehi
*CAP
1 *1898:RESET_B 0
2 *2089:L_HI 0.00035228
3 *1138:8 0.00035228
4 *1138:8 *1140:10 0
*RES
1 *2089:L_HI *1138:8 43.5992 
2 *1138:8 *1898:RESET_B 20 
*END

*D_NET *1139 0.000875353
*CONN
*I *1899:RESET_B I *D sg13g2_dfrbp_1
*I *2090:L_HI O *D sg13g2_tiehi
*CAP
1 *1899:RESET_B 0.000240504
2 *2090:L_HI 0.000240504
3 *13:10 *1899:RESET_B 0.000394346
4 *17:8 *1899:RESET_B 0
5 *691:8 *1899:RESET_B 0
6 *1012:14 *1899:RESET_B 0
*RES
1 *2090:L_HI *1899:RESET_B 22.64 
*END

*D_NET *1140 0.000658793
*CONN
*I *1900:RESET_B I *D sg13g2_dfrbp_1
*I *2091:L_HI O *D sg13g2_tiehi
*CAP
1 *1900:RESET_B 0
2 *2091:L_HI 0.000329396
3 *1140:10 0.000329396
4 *827:13 *1140:10 0
5 *975:62 *1140:10 0
6 *1138:8 *1140:10 0
*RES
1 *2091:L_HI *1140:10 42.8424 
2 *1140:10 *1900:RESET_B 20 
*END

*D_NET *1141 0.000488176
*CONN
*I *1901:RESET_B I *D sg13g2_dfrbp_1
*I *2092:L_HI O *D sg13g2_tiehi
*CAP
1 *1901:RESET_B 0
2 *2092:L_HI 0.000244088
3 *1141:8 0.000244088
4 *1901:CLK *1141:8 0
5 *832:13 *1141:8 0
6 *834:19 *1141:8 0
*RES
1 *2092:L_HI *1141:8 42.1208 
2 *1141:8 *1901:RESET_B 20 
*END

*D_NET *1142 0.000697982
*CONN
*I *1902:RESET_B I *D sg13g2_dfrbp_1
*I *2093:L_HI O *D sg13g2_tiehi
*CAP
1 *1902:RESET_B 0
2 *2093:L_HI 0.000325089
3 *1142:10 0.000325089
4 *1676:B *1142:10 0
5 *1902:D *1142:10 0
6 *77:8 *1142:10 0
7 *198:38 *1142:10 4.78029e-05
8 *984:10 *1142:10 0
9 *984:118 *1142:10 0
*RES
1 *2093:L_HI *1142:10 43.0536 
2 *1142:10 *1902:RESET_B 20 
*END

*D_NET *1143 0.000408764
*CONN
*I *1903:RESET_B I *D sg13g2_dfrbp_1
*I *2094:L_HI O *D sg13g2_tiehi
*CAP
1 *1903:RESET_B 0
2 *2094:L_HI 0.000204382
3 *1143:8 0.000204382
4 *979:22 *1143:8 0
5 *979:33 *1143:8 0
*RES
1 *2094:L_HI *1143:8 42.1208 
2 *1143:8 *1903:RESET_B 20 
*END

*D_NET *1144 0.000738358
*CONN
*I *1904:RESET_B I *D sg13g2_dfrbp_1
*I *2095:L_HI O *D sg13g2_tiehi
*CAP
1 *1904:RESET_B 0
2 *2095:L_HI 0.000198617
3 *1144:8 0.000198617
4 *1903:D *1144:8 0
5 *979:33 *1144:8 0
6 *979:48 *1144:8 0.000341124
*RES
1 *2095:L_HI *1144:8 42.1208 
2 *1144:8 *1904:RESET_B 20 
*END

*D_NET *1145 0.000656304
*CONN
*I *1905:RESET_B I *D sg13g2_dfrbp_1
*I *2096:L_HI O *D sg13g2_tiehi
*CAP
1 *1905:RESET_B 0
2 *2096:L_HI 0.000290454
3 *1145:10 0.000290454
4 *1809:A *1145:10 7.53965e-05
5 *979:10 *1145:10 0
*RES
1 *2096:L_HI *1145:10 43.0536 
2 *1145:10 *1905:RESET_B 20 
*END

*D_NET *1146 0.000564451
*CONN
*I *1906:RESET_B I *D sg13g2_dfrbp_1
*I *2097:L_HI O *D sg13g2_tiehi
*CAP
1 *1906:RESET_B 0
2 *2097:L_HI 0.000244527
3 *1146:10 0.000244527
4 *205:36 *1146:10 7.53965e-05
5 *700:14 *1146:10 0
6 *986:10 *1146:10 0
*RES
1 *2097:L_HI *1146:10 42.42 
2 *1146:10 *1906:RESET_B 20 
*END

*D_NET *1147 0.00157858
*CONN
*I *1907:RESET_B I *D sg13g2_dfrbp_1
*I *2098:L_HI O *D sg13g2_tiehi
*CAP
1 *1907:RESET_B 0
2 *2098:L_HI 0.000424153
3 *1147:12 0.000424153
4 *1512:A *1147:12 0
5 *1513:D *1147:12 0.000161961
6 *1694:A *1147:12 0.000181383
7 *1694:B *1147:12 0
8 *1694:C *1147:12 0
9 *1922:CLK *1147:12 0
10 *533:10 *1147:12 8.00835e-05
11 *984:152 *1147:12 0.000306848
*RES
1 *2098:L_HI *1147:12 44.4088 
2 *1147:12 *1907:RESET_B 20 
*END

*D_NET *1148 0.00024777
*CONN
*I *1908:RESET_B I *D sg13g2_dfrbp_1
*I *2099:L_HI O *D sg13g2_tiehi
*CAP
1 *1908:RESET_B 0
2 *2099:L_HI 0.000123885
3 *1148:8 0.000123885
4 results[110] *1148:8 0
*RES
1 *2099:L_HI *1148:8 41.3816 
2 *1148:8 *1908:RESET_B 20 
*END

*D_NET *1149 0.000726799
*CONN
*I *1909:RESET_B I *D sg13g2_dfrbp_1
*I *2100:L_HI O *D sg13g2_tiehi
*CAP
1 *1909:RESET_B 0
2 *2100:L_HI 0.000363399
3 *1149:8 0.000363399
4 *1807:A *1149:8 0
5 *534:66 *1149:8 0
6 *853:10 *1149:8 0
7 *976:19 *1149:8 0
*RES
1 *2100:L_HI *1149:8 43.0448 
2 *1149:8 *1909:RESET_B 20 
*END

*D_NET *1150 0.000496153
*CONN
*I *1910:RESET_B I *D sg13g2_dfrbp_1
*I *2101:L_HI O *D sg13g2_tiehi
*CAP
1 *1910:RESET_B 0.000248077
2 *2101:L_HI 0.000248077
3 *1518:A1 *1910:RESET_B 0
4 *853:10 *1910:RESET_B 0
*RES
1 *2101:L_HI *1910:RESET_B 22.64 
*END

*D_NET *1151 0.000276274
*CONN
*I *1911:RESET_B I *D sg13g2_dfrbp_1
*I *2102:L_HI O *D sg13g2_tiehi
*CAP
1 *1911:RESET_B 0.000138137
2 *2102:L_HI 0.000138137
*RES
1 *2102:L_HI *1911:RESET_B 21.3376 
*END

*D_NET *1152 0.000666804
*CONN
*I *1912:RESET_B I *D sg13g2_dfrbp_1
*I *2103:L_HI O *D sg13g2_tiehi
*CAP
1 *1912:RESET_B 0
2 *2103:L_HI 0.000194589
3 *1152:8 0.000194589
4 *979:66 *1152:8 0
5 *990:16 *1152:8 0.000277625
6 *990:25 *1152:8 0
*RES
1 *2103:L_HI *1152:8 42.1208 
2 *1152:8 *1912:RESET_B 20 
*END

*D_NET *1153 0.000443568
*CONN
*I *1913:RESET_B I *D sg13g2_dfrbp_1
*I *2104:L_HI O *D sg13g2_tiehi
*CAP
1 *1913:RESET_B 0.000133539
2 *2104:L_HI 0.000133539
3 *1913:D *1913:RESET_B 0.000176491
*RES
1 *2104:L_HI *1913:RESET_B 21.1616 
*END

*D_NET *1154 0.000285508
*CONN
*I *1914:RESET_B I *D sg13g2_dfrbp_1
*I *2105:L_HI O *D sg13g2_tiehi
*CAP
1 *1914:RESET_B 0
2 *2105:L_HI 0.000142754
3 *1154:8 0.000142754
4 *87:8 *1154:8 0
5 *979:48 *1154:8 0
6 *1083:10 *1154:8 0
*RES
1 *2105:L_HI *1154:8 41.3816 
2 *1154:8 *1914:RESET_B 20 
*END

*D_NET *1155 0.000667667
*CONN
*I *1915:RESET_B I *D sg13g2_dfrbp_1
*I *2106:L_HI O *D sg13g2_tiehi
*CAP
1 *1915:RESET_B 0
2 *2106:L_HI 0.000204701
3 *1155:8 0.000204701
4 *88:10 *1155:8 8.03974e-05
5 *978:30 *1155:8 0.000177868
6 *979:48 *1155:8 0
*RES
1 *2106:L_HI *1155:8 42.1208 
2 *1155:8 *1915:RESET_B 20 
*END

*D_NET *1156 0.000272027
*CONN
*I *1916:RESET_B I *D sg13g2_dfrbp_1
*I *2107:L_HI O *D sg13g2_tiehi
*CAP
1 *1916:RESET_B 0
2 *2107:L_HI 0.000136013
3 *1156:8 0.000136013
*RES
1 *2107:L_HI *1156:8 41.3816 
2 *1156:8 *1916:RESET_B 20 
*END

*D_NET *1157 0.000419363
*CONN
*I *1917:RESET_B I *D sg13g2_dfrbp_1
*I *2108:L_HI O *D sg13g2_tiehi
*CAP
1 *1917:RESET_B 0
2 *2108:L_HI 0.000209681
3 *1157:8 0.000209681
4 *705:27 *1157:8 0
*RES
1 *2108:L_HI *1157:8 42.1208 
2 *1157:8 *1917:RESET_B 20 
*END

*D_NET *1158 0.000508715
*CONN
*I *1918:RESET_B I *D sg13g2_dfrbp_1
*I *2109:L_HI O *D sg13g2_tiehi
*CAP
1 *1918:RESET_B 0
2 *2109:L_HI 0.000254358
3 *1158:8 0.000254358
4 *1724:C *1158:8 0
5 *742:17 *1158:8 0
*RES
1 *2109:L_HI *1158:8 42.1208 
2 *1158:8 *1918:RESET_B 20 
*END

*D_NET *1159 0.000672643
*CONN
*I *1919:RESET_B I *D sg13g2_dfrbp_1
*I *2110:L_HI O *D sg13g2_tiehi
*CAP
1 *1919:RESET_B 0
2 *2110:L_HI 0.000247149
3 *1159:10 0.000247149
4 *92:12 *1159:10 0.000178344
5 *94:10 *1159:10 0
*RES
1 *2110:L_HI *1159:10 42.5256 
2 *1159:10 *1919:RESET_B 20 
*END

*D_NET *1160 0.000490256
*CONN
*I *1920:RESET_B I *D sg13g2_dfrbp_1
*I *2111:L_HI O *D sg13g2_tiehi
*CAP
1 *1920:RESET_B 0
2 *2111:L_HI 0.000204959
3 *1160:8 0.000204959
4 *1677:A *1160:8 8.03372e-05
5 *1920:CLK *1160:8 0
6 *701:10 *1160:8 0
*RES
1 *2111:L_HI *1160:8 42.1208 
2 *1160:8 *1920:RESET_B 20 
*END

*D_NET *1161 0.000247097
*CONN
*I *1921:RESET_B I *D sg13g2_dfrbp_1
*I *2112:L_HI O *D sg13g2_tiehi
*CAP
1 *1921:RESET_B 0
2 *2112:L_HI 0.000123549
3 *1161:8 0.000123549
*RES
1 *2112:L_HI *1161:8 41.3816 
2 *1161:8 *1921:RESET_B 20 
*END

*D_NET *1162 0.000437516
*CONN
*I *1922:RESET_B I *D sg13g2_dfrbp_1
*I *2113:L_HI O *D sg13g2_tiehi
*CAP
1 *1922:RESET_B 0
2 *2113:L_HI 0.000218758
3 *1162:8 0.000218758
4 *95:8 *1162:8 0
5 *988:29 *1162:8 0
*RES
1 *2113:L_HI *1162:8 42.1208 
2 *1162:8 *1922:RESET_B 20 
*END
